 Entering Gaussian System, Link 0=/appl/soft/chem/gaussian/G16RevC.02/g16/g16
 Initial command:
 /appl/soft/chem/gaussian/G16RevC.02/g16/l1.exe "/scratch/project_2010143/Biocenter_project/Drug_membrane_permeability/Drug_molecule_parameterization/AR-16314-2ndTrial/Amber_custom_parameterization/2.ESP-charges-calculation/5296874.GAUSS_SCRDIR/Gau-1670155.inp" -scrdir="/scratch/project_2010143/Biocenter_project/Drug_membrane_permeability/Drug_molecule_parameterization/AR-16314-2ndTrial/Amber_custom_parameterization/2.ESP-charges-calculation/5296874.GAUSS_SCRDIR/"
 Entering Link 1 = /appl/soft/chem/gaussian/G16RevC.02/g16/l1.exe PID=   1670159.
  
 Copyright (c) 1988-2021, Gaussian, Inc.  All Rights Reserved.
  
 This is part of the Gaussian(R) 16 program.  It is based on
 the Gaussian(R) 09 system (copyright 2009, Gaussian, Inc.),
 the Gaussian(R) 03 system (copyright 2003, Gaussian, Inc.),
 the Gaussian(R) 98 system (copyright 1998, Gaussian, Inc.),
 the Gaussian(R) 94 system (copyright 1995, Gaussian, Inc.),
 the Gaussian 92(TM) system (copyright 1992, Gaussian, Inc.),
 the Gaussian 90(TM) system (copyright 1990, Gaussian, Inc.),
 the Gaussian 88(TM) system (copyright 1988, Gaussian, Inc.),
 the Gaussian 86(TM) system (copyright 1986, Carnegie Mellon
 University), and the Gaussian 82(TM) system (copyright 1983,
 Carnegie Mellon University). Gaussian is a federally registered
 trademark of Gaussian, Inc.
  
 This software contains proprietary and confidential information,
 including trade secrets, belonging to Gaussian, Inc.
  
 This software is provided under written license and may be
 used, copied, transmitted, or stored only in accord with that
 written license.
  
 The following legend is applicable only to US Government
 contracts under FAR:
  
                    RESTRICTED RIGHTS LEGEND
  
 Use, reproduction and disclosure by the US Government is
 subject to restrictions as set forth in subparagraphs (a)
 and (c) of the Commercial Computer Software - Restricted
 Rights clause in FAR 52.227-19.
  
 Gaussian, Inc.
 340 Quinnipiac St., Bldg. 40, Wallingford CT 06492
  
  
 ---------------------------------------------------------------
 Warning -- This program may not be used in any manner that
 competes with the business of Gaussian, Inc. or will provide
 assistance to any competitor of Gaussian, Inc.  The licensee
 of this program is prohibited from giving any competitor of
 Gaussian, Inc. access to this program.  By using this program,
 the user acknowledges that Gaussian, Inc. is engaged in the
 business of creating and licensing software in the field of
 computational chemistry and represents and warrants to the
 licensee that it is not a competitor of Gaussian, Inc. and that
 it will not use this program in any manner prohibited above.
 ---------------------------------------------------------------
  

 Cite this work as:
 Gaussian 16, Revision C.02,
 M. J. Frisch, G. W. Trucks, H. B. Schlegel, G. E. Scuseria, 
 M. A. Robb, J. R. Cheeseman, G. Scalmani, V. Barone, 
 G. A. Petersson, H. Nakatsuji, X. Li, M. Caricato, A. V. Marenich, 
 J. Bloino, B. G. Janesko, R. Gomperts, B. Mennucci, H. P. Hratchian, 
 J. V. Ortiz, A. F. Izmaylov, J. L. Sonnenberg, D. Williams-Young, 
 F. Ding, F. Lipparini, F. Egidi, J. Goings, B. Peng, A. Petrone, 
 T. Henderson, D. Ranasinghe, V. G. Zakrzewski, J. Gao, N. Rega, 
 G. Zheng, W. Liang, M. Hada, M. Ehara, K. Toyota, R. Fukuda, 
 J. Hasegawa, M. Ishida, T. Nakajima, Y. Honda, O. Kitao, H. Nakai, 
 T. Vreven, K. Throssell, J. A. Montgomery, Jr., J. E. Peralta, 
 F. Ogliaro, M. J. Bearpark, J. J. Heyd, E. N. Brothers, K. N. Kudin, 
 V. N. Staroverov, T. A. Keith, R. Kobayashi, J. Normand, 
 K. Raghavachari, A. P. Rendell, J. C. Burant, S. S. Iyengar, 
 J. Tomasi, M. Cossi, J. M. Millam, M. Klene, C. Adamo, R. Cammi, 
 J. W. Ochterski, R. L. Martin, K. Morokuma, O. Farkas, 
 J. B. Foresman, and D. J. Fox, Gaussian, Inc., Wallingford CT, 2019.
 
 ******************************************
 Gaussian 16:  AS64L-G16RevC.02  7-Dec-2021
                21-Oct-2025 
 ******************************************
 %nproc=32
 Will use up to   32 processors via shared memory.
 %mem=64GB
 %chk=YT0_opt_charges.chk
 -----------------------------------------
 #P HF/6-31G* SCF=Tight Pop=MK IOp(6/33=2)
 -----------------------------------------
 1/38=1,172=1/1;
 2/12=2,17=6,18=5,40=1/2;
 3/5=1,6=6,7=1,11=9,25=1,30=1/1,2,3;
 4//1;
 5/5=2,32=2,38=5/2;
 6/7=2,8=2,9=2,10=2,15=8,20=1,28=1,33=2/1,2;
 99/5=1,9=1/99;
 Leave Link    1 at Tue Oct 21 13:42:31 2025, MaxMem=  8589934592 cpu:               0.5 elap:               0.1
 (Enter /appl/soft/chem/gaussian/G16RevC.02/g16/l101.exe)
 ---------------------------
 YT0 ESP charges calculation
 ---------------------------
 Symbolic Z-matrix:
 Charge =  1 Multiplicity = 1
 C                     5.893    -3.682     0.033 
 C                     4.877    -2.586    -0.075 
 C                     5.181    -1.224    -0.326 
 C                     4.034    -0.456    -0.366 
 C                     2.859     1.69     -0.656 
 C                     1.939     3.718    -1.034 
 C                     0.649     3.226    -0.826 
 N                     3.983     0.906    -0.6 
 C                    -0.568     4.083    -1.021 
 C                     0.594     1.866    -0.477 
 C                    -0.564    -0.1       0.451 
 C                    -1.955     0.219     1.046 
 C                    -2.143    -0.051     2.55 
 C                    -1.105     0.595     3.353 
 C                    -4.355     0.146     0.431 
 C                    -5.206    -0.222    -0.772 
 N                     3.058     2.985    -0.953 
 C                    -6.061    -2.14     -2.115 
 C                    -3.847    -2.298    -0.98 
 C                    -3.063    -1.834     0.234 
 C                    -1.686     1.685     0.619 
 N                    -0.605     1.19     -0.258 
 N                    -0.258     1.147     3.964 
 N                    -3.015    -0.379     0.221 
 N                    -5.242    -1.722    -0.933 
 N                     1.686     1.091    -0.403 
 S                     2.669    -1.489    -0.086 
 N                     3.584    -2.881     0.073 
 H                     6.182    -0.829    -0.468 
 H                     2.081     4.766    -1.296 
 H                     4.855     1.394    -0.785 
 H                     0.225    -0.141     1.212 
 H                    -0.463    -0.97     -0.205 
 H                    -3.12      0.315     2.889 
 H                    -2.113    -1.13      2.747 
 H                    -4.328     1.237     0.499 
 H                    -4.838    -0.227     1.355 
 H                    -6.241     0.117    -0.672 
 H                    -4.769     0.18     -1.689 
 H                    -3.947    -3.386    -1.022 
 H                    -3.386    -1.931    -1.899 
 H                    -2.054    -2.246     0.156 
 H                    -3.518    -2.251     1.153 
 H                    -2.491     2.213     0.099 
 H                    -1.325     2.298     1.455 
 H                    -5.694    -2.103    -0.089 
 H                    -7.068    -1.737    -2.006 
 H                    -5.589    -1.742    -3.013 
 H                    -6.091    -3.229    -2.155 
 H                    -0.286     5.029    -1.49 
 H                    -1.291     3.585    -1.677 
 H                    -1.071     4.322    -0.078 
 H                     6.474    -3.772    -0.891 
 H                     6.594    -3.489     0.851 
 H                     5.386    -4.63      0.222 
 
 ITRead=  0  0  0  0  0  0  0  0  0  0  0  0  0  0  0  0  0  0  0  0
 ITRead=  0  0  0  0  0  0  0  0  0  0  0  0  0  0  0  0  0  0  0  0
 ITRead=  0  0  0  0  0  0  0  0  0  0  0  0  0  0  0
 MicOpt= -1 -1 -1 -1 -1 -1 -1 -1 -1 -1 -1 -1 -1 -1 -1 -1 -1 -1 -1 -1
 MicOpt= -1 -1 -1 -1 -1 -1 -1 -1 -1 -1 -1 -1 -1 -1 -1 -1 -1 -1 -1 -1
 MicOpt= -1 -1 -1 -1 -1 -1 -1 -1 -1 -1 -1 -1 -1 -1 -1
 NAtoms=     55 NQM=       55 NQMF=       0 NMMI=      0 NMMIF=      0
                NMic=       0 NMicF=      0.
                    Isotopes and Nuclear Properties:
 (Nuclear quadrupole moments (NQMom) in fm**2, nuclear magnetic moments (NMagM)
  in nuclear magnetons)

  Atom         1           2           3           4           5           6           7           8           9          10
 IAtWgt=          12          12          12          12          12          12          12          14          12          12
 AtmWgt=  12.0000000  12.0000000  12.0000000  12.0000000  12.0000000  12.0000000  12.0000000  14.0030740  12.0000000  12.0000000
 NucSpn=           0           0           0           0           0           0           0           2           0           0
 AtZEff=  -0.0000000  -0.0000000  -0.0000000  -0.0000000  -0.0000000  -0.0000000  -0.0000000  -0.0000000  -0.0000000  -0.0000000
 NQMom=    0.0000000   0.0000000   0.0000000   0.0000000   0.0000000   0.0000000   0.0000000   2.0440000   0.0000000   0.0000000
 NMagM=    0.0000000   0.0000000   0.0000000   0.0000000   0.0000000   0.0000000   0.0000000   0.4037610   0.0000000   0.0000000
 AtZNuc=   6.0000000   6.0000000   6.0000000   6.0000000   6.0000000   6.0000000   6.0000000   7.0000000   6.0000000   6.0000000

  Atom        11          12          13          14          15          16          17          18          19          20
 IAtWgt=          12          12          12          12          12          12          14          12          12          12
 AtmWgt=  12.0000000  12.0000000  12.0000000  12.0000000  12.0000000  12.0000000  14.0030740  12.0000000  12.0000000  12.0000000
 NucSpn=           0           0           0           0           0           0           2           0           0           0
 AtZEff=  -0.0000000  -0.0000000  -0.0000000  -0.0000000  -0.0000000  -0.0000000  -0.0000000  -0.0000000  -0.0000000  -0.0000000
 NQMom=    0.0000000   0.0000000   0.0000000   0.0000000   0.0000000   0.0000000   2.0440000   0.0000000   0.0000000   0.0000000
 NMagM=    0.0000000   0.0000000   0.0000000   0.0000000   0.0000000   0.0000000   0.4037610   0.0000000   0.0000000   0.0000000
 AtZNuc=   6.0000000   6.0000000   6.0000000   6.0000000   6.0000000   6.0000000   7.0000000   6.0000000   6.0000000   6.0000000

  Atom        21          22          23          24          25          26          27          28          29          30
 IAtWgt=          12          14          14          14          14          14          32          14           1           1
 AtmWgt=  12.0000000  14.0030740  14.0030740  14.0030740  14.0030740  14.0030740  31.9720718  14.0030740   1.0078250   1.0078250
 NucSpn=           0           2           2           2           2           2           0           2           1           1
 AtZEff=  -0.0000000  -0.0000000  -0.0000000  -0.0000000  -0.0000000  -0.0000000  -0.0000000  -0.0000000  -0.0000000  -0.0000000
 NQMom=    0.0000000   2.0440000   2.0440000   2.0440000   2.0440000   2.0440000   0.0000000   2.0440000   0.0000000   0.0000000
 NMagM=    0.0000000   0.4037610   0.4037610   0.4037610   0.4037610   0.4037610   0.0000000   0.4037610   2.7928460   2.7928460
 AtZNuc=   6.0000000   7.0000000   7.0000000   7.0000000   7.0000000   7.0000000  16.0000000   7.0000000   1.0000000   1.0000000

  Atom        31          32          33          34          35          36          37          38          39          40
 IAtWgt=           1           1           1           1           1           1           1           1           1           1
 AtmWgt=   1.0078250   1.0078250   1.0078250   1.0078250   1.0078250   1.0078250   1.0078250   1.0078250   1.0078250   1.0078250
 NucSpn=           1           1           1           1           1           1           1           1           1           1
 AtZEff=  -0.0000000  -0.0000000  -0.0000000  -0.0000000  -0.0000000  -0.0000000  -0.0000000  -0.0000000  -0.0000000  -0.0000000
 NQMom=    0.0000000   0.0000000   0.0000000   0.0000000   0.0000000   0.0000000   0.0000000   0.0000000   0.0000000   0.0000000
 NMagM=    2.7928460   2.7928460   2.7928460   2.7928460   2.7928460   2.7928460   2.7928460   2.7928460   2.7928460   2.7928460
 AtZNuc=   1.0000000   1.0000000   1.0000000   1.0000000   1.0000000   1.0000000   1.0000000   1.0000000   1.0000000   1.0000000

  Atom        41          42          43          44          45          46          47          48          49          50
 IAtWgt=           1           1           1           1           1           1           1           1           1           1
 AtmWgt=   1.0078250   1.0078250   1.0078250   1.0078250   1.0078250   1.0078250   1.0078250   1.0078250   1.0078250   1.0078250
 NucSpn=           1           1           1           1           1           1           1           1           1           1
 AtZEff=  -0.0000000  -0.0000000  -0.0000000  -0.0000000  -0.0000000  -0.0000000  -0.0000000  -0.0000000  -0.0000000  -0.0000000
 NQMom=    0.0000000   0.0000000   0.0000000   0.0000000   0.0000000   0.0000000   0.0000000   0.0000000   0.0000000   0.0000000
 NMagM=    2.7928460   2.7928460   2.7928460   2.7928460   2.7928460   2.7928460   2.7928460   2.7928460   2.7928460   2.7928460
 AtZNuc=   1.0000000   1.0000000   1.0000000   1.0000000   1.0000000   1.0000000   1.0000000   1.0000000   1.0000000   1.0000000

  Atom        51          52          53          54          55
 IAtWgt=           1           1           1           1           1
 AtmWgt=   1.0078250   1.0078250   1.0078250   1.0078250   1.0078250
 NucSpn=           1           1           1           1           1
 AtZEff=  -0.0000000  -0.0000000  -0.0000000  -0.0000000  -0.0000000
 NQMom=    0.0000000   0.0000000   0.0000000   0.0000000   0.0000000
 NMagM=    2.7928460   2.7928460   2.7928460   2.7928460   2.7928460
 AtZNuc=   1.0000000   1.0000000   1.0000000   1.0000000   1.0000000
 Leave Link  101 at Tue Oct 21 13:42:31 2025, MaxMem=  8589934592 cpu:               0.3 elap:               0.1
 (Enter /appl/soft/chem/gaussian/G16RevC.02/g16/l202.exe)
 Stoichiometry    C19H27N8S(1+)
 Framework group  C1[X(C19H27N8S)]
 Deg. of freedom   159
 Full point group                 C1      NOp   1
 Largest Abelian subgroup         C1      NOp   1
 Largest concise Abelian subgroup C1      NOp   1
                         Standard orientation:                         
 ---------------------------------------------------------------------
 Center     Atomic      Atomic             Coordinates (Angstroms)
 Number     Number       Type             X           Y           Z
 ---------------------------------------------------------------------
      1          6           0        5.893080   -3.681869    0.032915
      2          6           0        4.877066   -2.585882   -0.075085
      3          6           0        5.181048   -1.223878   -0.326085
      4          6           0        4.034039   -0.455892   -0.366085
      5          6           0        2.859011    1.690093   -0.656085
      6          6           0        1.938985    3.718081   -1.034085
      7          6           0        0.648992    3.226065   -0.826085
      8          7           0        3.983021    0.906107   -0.600085
      9          6           0       -0.568019    4.083049   -1.021085
     10          6           0        0.594009    1.866064   -0.477085
     11          6           0       -0.563966   -0.099951    0.450915
     12          6           0       -1.954970    0.219031    1.045915
     13          6           0       -2.142966   -0.050971    2.549915
     14          6           0       -1.104975    0.595042    3.352915
     15          6           0       -4.354969    0.146001    0.430915
     16          6           0       -5.205964   -0.222010   -0.772085
     17          7           0        3.057995    2.985095   -0.953085
     18          6           0       -6.060940   -2.140021   -2.115085
     19          6           0       -3.846938   -2.297993   -0.980085
     20          6           0       -3.062944   -1.833983    0.233915
     21          6           0       -1.685989    1.685035    0.618915
     22          7           0       -0.604982    1.190049   -0.258085
     23          7           0       -0.257982    1.147053    3.963915
     24          7           0       -3.014962   -0.378982    0.220915
     25          7           0       -5.241945   -1.722010   -0.933085
     26          7           0        1.686019    1.091078   -0.403085
     27         16           0        2.669052   -1.488910   -0.086085
     28          7           0        3.584070   -2.880898    0.072915
     29          1           0        6.182043   -0.828865   -0.468085
     30          1           0        2.080972    4.766083   -1.296085
     31          1           0        4.855015    1.394118   -0.785085
     32          1           0        0.225035   -0.140941    1.211915
     33          1           0       -0.462955   -0.969950   -0.205085
     34          1           0       -3.119971    0.315017    2.888915
     35          1           0       -2.112953   -1.129971    2.746915
     36          1           0       -4.327983    1.237001    0.498915
     37          1           0       -4.837964   -0.227005    1.354915
     38          1           0       -6.240969    0.116977   -0.672085
     39          1           0       -4.768969    0.179996   -1.689085
     40          1           0       -3.946924   -3.385994   -1.022085
     41          1           0       -3.385943   -1.930987   -1.899085
     42          1           0       -2.053939   -2.245970    0.155915
     43          1           0       -3.517938   -2.250989    1.152915
     44          1           0       -2.490995    2.213025    0.098915
     45          1           0       -1.324996    2.298039    1.454915
     46          1           0       -5.693940   -2.103016   -0.089085
     47          1           0       -7.067945   -1.737034   -2.006085
     48          1           0       -5.588945   -1.742015   -3.013085
     49          1           0       -6.090926   -3.229021   -2.155085
     50          1           0       -0.286031    5.029053   -1.490085
     51          1           0       -1.291013    3.585040   -1.677085
     52          1           0       -1.071022    4.322043   -0.078085
     53          1           0        6.474081   -3.771861   -0.891085
     54          1           0        6.594077   -3.488860    0.850915
     55          1           0        5.386092   -4.629875    0.221915
 ---------------------------------------------------------------------
 Rotational constants (GHZ):           0.2190485           0.0953284           0.0804869
 Leave Link  202 at Tue Oct 21 13:42:31 2025, MaxMem=  8589934592 cpu:               0.5 elap:               0.1
 (Enter /appl/soft/chem/gaussian/G16RevC.02/g16/l301.exe)
 Standard basis: 6-31G(d) (6D, 7F)
 Ernie: Thresh=  0.10000D-02 Tol=  0.10000D-05 Strict=F.
 There are   478 symmetry adapted cartesian basis functions of A   symmetry.
 There are   478 symmetry adapted basis functions of A   symmetry.
   478 basis functions,   916 primitive gaussians,   478 cartesian basis functions
   106 alpha electrons      106 beta electrons
       nuclear repulsion energy      2826.9206289353 Hartrees.
 IExCor=    0 DFT=F Ex=HF Corr=None ExCW=0 ScaHFX=  1.000000
 ScaDFX=  1.000000  1.000000  1.000000  1.000000 ScalE2=  1.000000  1.000000
 IRadAn=      5 IRanWt=     -1 IRanGd=            0 ICorTp=0 IEmpDi=  4
 NAtoms=   55 NActive=   55 NUniq=   55 SFac= 1.00D+00 NAtFMM=   60 NAOKFM=F Big=F
 Integral buffers will be    131072 words long.
 Raffenetti 1 integral format.
 Two-electron integral symmetry is turned on.
 Leave Link  301 at Tue Oct 21 13:42:31 2025, MaxMem=  8589934592 cpu:               0.3 elap:               0.1
 (Enter /appl/soft/chem/gaussian/G16RevC.02/g16/l302.exe)
 NPDir=0 NMtPBC=     1 NCelOv=     1 NCel=       1 NClECP=     1 NCelD=      1
         NCelK=      1 NCelE2=     1 NClLst=     1 CellRange=     0.0.
 One-electron integrals computed using PRISM.
 One-electron integral symmetry used in STVInt
 NBasis=   478 RedAO= T EigKep=  9.25D-04  NBF=   478
 NBsUse=   478 1.00D-06 EigRej= -1.00D+00 NBFU=   478
 Leave Link  302 at Tue Oct 21 13:42:32 2025, MaxMem=  8589934592 cpu:               8.1 elap:               0.8
 (Enter /appl/soft/chem/gaussian/G16RevC.02/g16/l303.exe)
 DipDrv:  MaxL=1.
 Leave Link  303 at Tue Oct 21 13:42:32 2025, MaxMem=  8589934592 cpu:               0.9 elap:               0.1
 (Enter /appl/soft/chem/gaussian/G16RevC.02/g16/l401.exe)
 ExpMin= 1.17D-01 ExpMax= 2.19D+04 ExpMxC= 3.30D+03 IAcc=3 IRadAn=         5 AccDes= 0.00D+00
 Harris functional with IExCor=  205 and IRadAn=       5 diagonalized for initial guess.
 HarFok:  IExCor=  205 AccDes= 0.00D+00 IRadAn=         5 IDoV= 1 UseB2=F ITyADJ=14
 ICtDFT=  3500011 ScaDFX=  1.000000  1.000000  1.000000  1.000000
 FoFCou: FMM=F IPFlag=           0 FMFlag=      100000 FMFlg1=           0
         NFxFlg=           0 DoJE=T BraDBF=F KetDBF=T FulRan=T
         wScrn=  0.000000 ICntrl=       500 IOpCl=  0 I1Cent=   200000004 NGrid=           0
         NMat0=    1 NMatS0=      1 NMatT0=    0 NMatD0=    1 NMtDS0=    0 NMtDT0=    0
 Petite list used in FoFCou.
 Harris En= -1569.25993223742    
 JPrj=0 DoOrth=F DoCkMO=F.
 Leave Link  401 at Tue Oct 21 13:42:34 2025, MaxMem=  8589934592 cpu:              21.2 elap:               1.3
 (Enter /appl/soft/chem/gaussian/G16RevC.02/g16/l502.exe)
 Integral symmetry usage will be decided dynamically.
 Closed shell SCF:
 Using DIIS extrapolation, IDIIS=  1040.
 NGot=  8589934592 LenX=  8589455679 LenY=  8589226717
 Requested convergence on RMS density matrix=1.00D-08 within 128 cycles.
 Requested convergence on MAX density matrix=1.00D-06.
 Requested convergence on             energy=1.00D-06.
 No special actions if energy rises.
 Fock matrices will be formed incrementally for  20 cycles.
 Integral accuracy reduced to 1.0D-05 until final iterations.

 Cycle   1  Pass 0  IDiag  1:
 FoFJK:  IHMeth= 1 ICntrl=       0 DoSepK=F KAlg= 0 I1Cent=           0 FoldK=F
 IRaf= 680000000 NMat=       1 IRICut=       1 DoRegI=T DoRafI=F ISym2E= 0 IDoP0=0 IntGTp=1.
 FoFCou: FMM=F IPFlag=           0 FMFlag=      100000 FMFlg1=           0
         NFxFlg=           0 DoJE=F BraDBF=F KetDBF=F FulRan=T
         wScrn=  0.000000 ICntrl=         0 IOpCl=  0 I1Cent=           0 NGrid=           0
         NMat0=    1 NMatS0=      1 NMatT0=    0 NMatD0=    1 NMtDS0=    0 NMtDT0=    0
 Symmetry not used in FoFCou.
 E= -1567.01420691821    
 DIIS: error= 8.45D-02 at cycle   1 NSaved=   1.
 NSaved= 1 IEnMin= 1 EnMin= -1567.01420691821     IErMin= 1 ErrMin= 8.45D-02
 ErrMax= 8.45D-02  0.00D+00 EMaxC= 1.00D-01 BMatC= 1.80D+00 BMatP= 1.80D+00
 IDIUse=3 WtCom= 1.55D-01 WtEn= 8.45D-01
 Coeff-Com:  0.100D+01
 Coeff-En:   0.100D+01
 Coeff:      0.100D+01
 Gap=     0.472 Goal=   None    Shift=    0.000
 GapD=    0.472 DampG=2.000 DampE=0.500 DampFc=1.0000 IDamp=-1.
 RMSDP=3.28D-03 MaxDP=1.31D-01              OVMax= 2.14D-01

 Cycle   2  Pass 0  IDiag  1:
 RMSU=  3.22D-03    CP:  9.61D-01
 E= -1567.86878194637     Delta-E=       -0.854575028165 Rises=F Damp=F
 DIIS: error= 1.30D-02 at cycle   2 NSaved=   2.
 NSaved= 2 IEnMin= 2 EnMin= -1567.86878194637     IErMin= 2 ErrMin= 1.30D-02
 ErrMax= 1.30D-02  0.00D+00 EMaxC= 1.00D-01 BMatC= 1.91D-01 BMatP= 1.80D+00
 IDIUse=3 WtCom= 8.70D-01 WtEn= 1.30D-01
 Coeff-Com:  0.153D+00 0.847D+00
 Coeff-En:   0.000D+00 0.100D+01
 Coeff:      0.133D+00 0.867D+00
 Gap=     0.394 Goal=   None    Shift=    0.000
 RMSDP=1.47D-03 MaxDP=1.22D-01 DE=-8.55D-01 OVMax= 1.06D-01

 Cycle   3  Pass 0  IDiag  1:
 RMSU=  1.30D-03    CP:  9.66D-01  7.89D-01
 E= -1568.01201080007     Delta-E=       -0.143228853696 Rises=F Damp=F
 DIIS: error= 5.99D-03 at cycle   3 NSaved=   3.
 NSaved= 3 IEnMin= 3 EnMin= -1568.01201080007     IErMin= 3 ErrMin= 5.99D-03
 ErrMax= 5.99D-03  0.00D+00 EMaxC= 1.00D-01 BMatC= 3.34D-02 BMatP= 1.91D-01
 IDIUse=3 WtCom= 9.40D-01 WtEn= 5.99D-02
 Coeff-Com: -0.190D-01 0.265D+00 0.754D+00
 Coeff-En:   0.000D+00 0.000D+00 0.100D+01
 Coeff:     -0.178D-01 0.249D+00 0.769D+00
 Gap=     0.386 Goal=   None    Shift=    0.000
 RMSDP=5.17D-04 MaxDP=4.33D-02 DE=-1.43D-01 OVMax= 7.04D-02

 Cycle   4  Pass 0  IDiag  1:
 RMSU=  3.11D-04    CP:  9.64D-01  8.84D-01  7.88D-01
 E= -1568.04498391989     Delta-E=       -0.032973119820 Rises=F Damp=F
 DIIS: error= 1.54D-03 at cycle   4 NSaved=   4.
 NSaved= 4 IEnMin= 4 EnMin= -1568.04498391989     IErMin= 4 ErrMin= 1.54D-03
 ErrMax= 1.54D-03  0.00D+00 EMaxC= 1.00D-01 BMatC= 2.81D-03 BMatP= 3.34D-02
 IDIUse=3 WtCom= 9.85D-01 WtEn= 1.54D-02
 Coeff-Com: -0.120D-01 0.491D-01 0.280D+00 0.683D+00
 Coeff-En:   0.000D+00 0.000D+00 0.000D+00 0.100D+01
 Coeff:     -0.118D-01 0.483D-01 0.275D+00 0.688D+00
 Gap=     0.369 Goal=   None    Shift=    0.000
 RMSDP=1.34D-04 MaxDP=7.67D-03 DE=-3.30D-02 OVMax= 1.05D-02

 Cycle   5  Pass 0  IDiag  1:
 RMSU=  8.78D-05    CP:  9.64D-01  8.81D-01  8.58D-01  8.60D-01
 E= -1568.04786929856     Delta-E=       -0.002885378668 Rises=F Damp=F
 DIIS: error= 5.10D-04 at cycle   5 NSaved=   5.
 NSaved= 5 IEnMin= 5 EnMin= -1568.04786929856     IErMin= 5 ErrMin= 5.10D-04
 ErrMax= 5.10D-04  0.00D+00 EMaxC= 1.00D-01 BMatC= 1.58D-04 BMatP= 2.81D-03
 IDIUse=3 WtCom= 9.95D-01 WtEn= 5.10D-03
 Coeff-Com:  0.592D-03-0.201D-01-0.374D-01 0.668D-01 0.990D+00
 Coeff-En:   0.000D+00 0.000D+00 0.000D+00 0.000D+00 0.100D+01
 Coeff:      0.589D-03-0.200D-01-0.373D-01 0.664D-01 0.990D+00
 Gap=     0.371 Goal=   None    Shift=    0.000
 RMSDP=5.52D-05 MaxDP=3.99D-03 DE=-2.89D-03 OVMax= 7.41D-03

 Cycle   6  Pass 0  IDiag  1:
 RMSU=  3.70D-05    CP:  9.64D-01  8.82D-01  8.79D-01  9.49D-01  1.14D+00
 E= -1568.04822169226     Delta-E=       -0.000352393705 Rises=F Damp=F
 DIIS: error= 2.65D-04 at cycle   6 NSaved=   6.
 NSaved= 6 IEnMin= 6 EnMin= -1568.04822169226     IErMin= 6 ErrMin= 2.65D-04
 ErrMax= 2.65D-04  0.00D+00 EMaxC= 1.00D-01 BMatC= 3.73D-05 BMatP= 1.58D-04
 IDIUse=3 WtCom= 9.97D-01 WtEn= 2.65D-03
 Coeff-Com:  0.194D-02-0.142D-01-0.530D-01-0.929D-01 0.278D+00 0.880D+00
 Coeff-En:   0.000D+00 0.000D+00 0.000D+00 0.000D+00 0.000D+00 0.100D+01
 Coeff:      0.194D-02-0.142D-01-0.529D-01-0.926D-01 0.277D+00 0.880D+00
 Gap=     0.372 Goal=   None    Shift=    0.000
 RMSDP=2.78D-05 MaxDP=2.60D-03 DE=-3.52D-04 OVMax= 5.90D-03

 Cycle   7  Pass 0  IDiag  1:
 RMSU=  1.39D-05    CP:  9.64D-01  8.83D-01  8.85D-01  9.87D-01  1.34D+00
                    CP:  1.16D+00
 E= -1568.04831278608     Delta-E=       -0.000091093816 Rises=F Damp=F
 DIIS: error= 9.94D-05 at cycle   7 NSaved=   7.
 NSaved= 7 IEnMin= 7 EnMin= -1568.04831278608     IErMin= 7 ErrMin= 9.94D-05
 ErrMax= 9.94D-05  0.00D+00 EMaxC= 1.00D-01 BMatC= 5.64D-06 BMatP= 3.73D-05
 IDIUse=1 WtCom= 1.00D+00 WtEn= 0.00D+00
 Coeff-Com:  0.166D-03 0.909D-03-0.130D-02-0.255D-01-0.107D+00 0.133D+00
 Coeff-Com:  0.999D+00
 Coeff:      0.166D-03 0.909D-03-0.130D-02-0.255D-01-0.107D+00 0.133D+00
 Coeff:      0.999D+00
 Gap=     0.372 Goal=   None    Shift=    0.000
 RMSDP=1.29D-05 MaxDP=1.10D-03 DE=-9.11D-05 OVMax= 2.49D-03

 Cycle   8  Pass 0  IDiag  1:
 RMSU=  5.88D-06    CP:  9.64D-01  8.83D-01  8.87D-01  9.93D-01  1.40D+00
                    CP:  1.41D+00  1.30D+00
 E= -1568.04833113340     Delta-E=       -0.000018347320 Rises=F Damp=F
 DIIS: error= 4.84D-05 at cycle   8 NSaved=   8.
 NSaved= 8 IEnMin= 8 EnMin= -1568.04833113340     IErMin= 8 ErrMin= 4.84D-05
 ErrMax= 4.84D-05  0.00D+00 EMaxC= 1.00D-01 BMatC= 1.07D-06 BMatP= 5.64D-06
 IDIUse=1 WtCom= 1.00D+00 WtEn= 0.00D+00
 Coeff-Com: -0.409D-03 0.361D-02 0.125D-01 0.153D-01-0.880D-01-0.165D+00
 Coeff-Com:  0.179D+00 0.104D+01
 Coeff:     -0.409D-03 0.361D-02 0.125D-01 0.153D-01-0.880D-01-0.165D+00
 Coeff:      0.179D+00 0.104D+01
 Gap=     0.373 Goal=   None    Shift=    0.000
 RMSDP=7.16D-06 MaxDP=5.84D-04 DE=-1.83D-05 OVMax= 1.46D-03

 Initial convergence to 1.0D-05 achieved.  Increase integral accuracy.
 Cycle   9  Pass 1  IDiag  1:
 E= -1568.04833523437     Delta-E=       -0.000004100972 Rises=F Damp=F
 DIIS: error= 8.78D-05 at cycle   1 NSaved=   1.
 NSaved= 1 IEnMin= 1 EnMin= -1568.04833523437     IErMin= 1 ErrMin= 8.78D-05
 ErrMax= 8.78D-05  0.00D+00 EMaxC= 1.00D-01 BMatC= 1.48D-06 BMatP= 1.48D-06
 IDIUse=1 WtCom= 1.00D+00 WtEn= 0.00D+00
 Coeff-Com:  0.100D+01
 Coeff:      0.100D+01
 Gap=     0.373 Goal=   None    Shift=    0.000
 RMSDP=7.16D-06 MaxDP=5.84D-04 DE=-4.10D-06 OVMax= 2.20D-04

 Cycle  10  Pass 1  IDiag  1:
 RMSU=  2.35D-05    CP:  1.00D+00
 E= -1568.04833662376     Delta-E=       -0.000001389386 Rises=F Damp=F
 DIIS: error= 8.53D-06 at cycle   2 NSaved=   2.
 NSaved= 2 IEnMin= 2 EnMin= -1568.04833662376     IErMin= 2 ErrMin= 8.53D-06
 ErrMax= 8.53D-06  0.00D+00 EMaxC= 1.00D-01 BMatC= 6.29D-08 BMatP= 1.48D-06
 IDIUse=1 WtCom= 1.00D+00 WtEn= 0.00D+00
 Coeff-Com:  0.988D-02 0.990D+00
 Coeff:      0.988D-02 0.990D+00
 Gap=     0.373 Goal=   None    Shift=    0.000
 RMSDP=1.57D-06 MaxDP=5.26D-05 DE=-1.39D-06 OVMax= 1.19D-04

 Cycle  11  Pass 1  IDiag  1:
 RMSU=  1.07D-06    CP:  1.00D+00  1.05D+00
 E= -1568.04833672388     Delta-E=       -0.000000100123 Rises=F Damp=F
 DIIS: error= 5.78D-06 at cycle   3 NSaved=   3.
 NSaved= 3 IEnMin= 3 EnMin= -1568.04833672388     IErMin= 3 ErrMin= 5.78D-06
 ErrMax= 5.78D-06  0.00D+00 EMaxC= 1.00D-01 BMatC= 3.28D-08 BMatP= 6.29D-08
 IDIUse=1 WtCom= 1.00D+00 WtEn= 0.00D+00
 Coeff-Com: -0.288D-01 0.394D+00 0.635D+00
 Coeff:     -0.288D-01 0.394D+00 0.635D+00
 Gap=     0.373 Goal=   None    Shift=    0.000
 RMSDP=4.75D-07 MaxDP=2.86D-05 DE=-1.00D-07 OVMax= 6.56D-05

 Cycle  12  Pass 1  IDiag  1:
 RMSU=  4.59D-07    CP:  1.00D+00  1.05D+00  9.66D-01
 E= -1568.04833677078     Delta-E=       -0.000000046904 Rises=F Damp=F
 DIIS: error= 2.92D-06 at cycle   4 NSaved=   4.
 NSaved= 4 IEnMin= 4 EnMin= -1568.04833677078     IErMin= 4 ErrMin= 2.92D-06
 ErrMax= 2.92D-06  0.00D+00 EMaxC= 1.00D-01 BMatC= 5.03D-09 BMatP= 3.28D-08
 IDIUse=1 WtCom= 1.00D+00 WtEn= 0.00D+00
 Coeff-Com:  0.123D-01-0.420D+00-0.232D+00 0.164D+01
 Coeff:      0.123D-01-0.420D+00-0.232D+00 0.164D+01
 Gap=     0.373 Goal=   None    Shift=    0.000
 RMSDP=6.06D-07 MaxDP=4.08D-05 DE=-4.69D-08 OVMax= 1.03D-04

 Cycle  13  Pass 1  IDiag  1:
 RMSU=  2.12D-07    CP:  1.00D+00  1.06D+00  1.37D+00  1.78D+00
 E= -1568.04833679625     Delta-E=       -0.000000025462 Rises=F Damp=F
 DIIS: error= 9.28D-07 at cycle   5 NSaved=   5.
 NSaved= 5 IEnMin= 5 EnMin= -1568.04833679625     IErMin= 5 ErrMin= 9.28D-07
 ErrMax= 9.28D-07  0.00D+00 EMaxC= 1.00D-01 BMatC= 8.59D-10 BMatP= 5.03D-09
 IDIUse=1 WtCom= 1.00D+00 WtEn= 0.00D+00
 Coeff-Com:  0.980D-02-0.235D+00-0.188D+00 0.619D+00 0.794D+00
 Coeff:      0.980D-02-0.235D+00-0.188D+00 0.619D+00 0.794D+00
 Gap=     0.373 Goal=   None    Shift=    0.000
 RMSDP=1.76D-07 MaxDP=1.10D-05 DE=-2.55D-08 OVMax= 2.70D-05

 Cycle  14  Pass 1  IDiag  1:
 RMSU=  7.09D-08    CP:  1.00D+00  1.06D+00  1.48D+00  2.02D+00  1.18D+00
 E= -1568.04833679860     Delta-E=       -0.000000002354 Rises=F Damp=F
 DIIS: error= 3.54D-07 at cycle   6 NSaved=   6.
 NSaved= 6 IEnMin= 6 EnMin= -1568.04833679860     IErMin= 6 ErrMin= 3.54D-07
 ErrMax= 3.54D-07  0.00D+00 EMaxC= 1.00D-01 BMatC= 6.70D-11 BMatP= 8.59D-10
 IDIUse=1 WtCom= 1.00D+00 WtEn= 0.00D+00
 Coeff-Com: -0.112D-02 0.399D-01 0.294D-01-0.176D+00 0.358D-01 0.107D+01
 Coeff:     -0.112D-02 0.399D-01 0.294D-01-0.176D+00 0.358D-01 0.107D+01
 Gap=     0.373 Goal=   None    Shift=    0.000
 RMSDP=4.82D-08 MaxDP=3.28D-06 DE=-2.35D-09 OVMax= 8.40D-06

 Cycle  15  Pass 1  IDiag  1:
 RMSU=  2.76D-08    CP:  1.00D+00  1.06D+00  1.49D+00  2.05D+00  1.33D+00
                    CP:  1.20D+00
 E= -1568.04833679881     Delta-E=       -0.000000000214 Rises=F Damp=F
 DIIS: error= 1.85D-07 at cycle   7 NSaved=   7.
 NSaved= 7 IEnMin= 7 EnMin= -1568.04833679881     IErMin= 7 ErrMin= 1.85D-07
 ErrMax= 1.85D-07  0.00D+00 EMaxC= 1.00D-01 BMatC= 1.89D-11 BMatP= 6.70D-11
 IDIUse=1 WtCom= 1.00D+00 WtEn= 0.00D+00
 Coeff-Com: -0.212D-02 0.544D-01 0.457D-01-0.171D+00-0.127D+00 0.310D+00
 Coeff-Com:  0.890D+00
 Coeff:     -0.212D-02 0.544D-01 0.457D-01-0.171D+00-0.127D+00 0.310D+00
 Coeff:      0.890D+00
 Gap=     0.373 Goal=   None    Shift=    0.000
 RMSDP=2.16D-08 MaxDP=1.44D-06 DE=-2.14D-10 OVMax= 3.01D-06

 Cycle  16  Pass 1  IDiag  1:
 RMSU=  1.41D-08    CP:  1.00D+00  1.06D+00  1.49D+00  2.05D+00  1.37D+00
                    CP:  1.33D+00  1.30D+00
 E= -1568.04833679887     Delta-E=       -0.000000000055 Rises=F Damp=F
 DIIS: error= 1.07D-07 at cycle   8 NSaved=   8.
 NSaved= 8 IEnMin= 8 EnMin= -1568.04833679887     IErMin= 8 ErrMin= 1.07D-07
 ErrMax= 1.07D-07  0.00D+00 EMaxC= 1.00D-01 BMatC= 2.78D-12 BMatP= 1.89D-11
 IDIUse=1 WtCom= 1.00D+00 WtEn= 0.00D+00
 Coeff-Com:  0.214D-03-0.799D-02-0.416D-02 0.340D-01-0.311D-02-0.226D+00
 Coeff-Com: -0.397D-01 0.125D+01
 Coeff:      0.214D-03-0.799D-02-0.416D-02 0.340D-01-0.311D-02-0.226D+00
 Coeff:     -0.397D-01 0.125D+01
 Gap=     0.373 Goal=   None    Shift=    0.000
 RMSDP=1.27D-08 MaxDP=1.09D-06 DE=-5.55D-11 OVMax= 2.33D-06

 Cycle  17  Pass 1  IDiag  1:
 RMSU=  4.80D-09    CP:  1.00D+00  1.06D+00  1.49D+00  2.05D+00  1.38D+00
                    CP:  1.37D+00  1.64D+00  1.42D+00
 E= -1568.04833679886     Delta-E=        0.000000000006 Rises=F Damp=F
 DIIS: error= 2.89D-08 at cycle   9 NSaved=   9.
 NSaved= 9 IEnMin= 8 EnMin= -1568.04833679887     IErMin= 9 ErrMin= 2.89D-08
 ErrMax= 2.89D-08  0.00D+00 EMaxC= 1.00D-01 BMatC= 6.35D-13 BMatP= 2.78D-12
 IDIUse=1 WtCom= 1.00D+00 WtEn= 0.00D+00
 Coeff-Com:  0.365D-03-0.969D-02-0.767D-02 0.303D-01 0.201D-01-0.789D-01
 Coeff-Com: -0.174D+00 0.215D+00 0.100D+01
 Coeff:      0.365D-03-0.969D-02-0.767D-02 0.303D-01 0.201D-01-0.789D-01
 Coeff:     -0.174D+00 0.215D+00 0.100D+01
 Gap=     0.373 Goal=   None    Shift=    0.000
 RMSDP=5.19D-09 MaxDP=3.65D-07 DE= 6.37D-12 OVMax= 7.79D-07

 SCF Done:  E(RHF) =  -1568.04833680     A.U. after   17 cycles
            NFock= 17  Conv=0.52D-08     -V/T= 2.0018
 KE= 1.565227679611D+03 PE=-9.307293418556D+03 EE= 3.347096773211D+03
 Leave Link  502 at Tue Oct 21 13:42:49 2025, MaxMem=  8589934592 cpu:             304.7 elap:              14.6
 (Enter /appl/soft/chem/gaussian/G16RevC.02/g16/l601.exe)
 Copying SCF densities to generalized density rwf, IOpCl= 0 IROHF=0.
 SCF density gives NOpUse=  1 NOpAll=  1.

 **********************************************************************

            Population analysis using the SCF Density.

 **********************************************************************

 Orbital symmetries:
 BldTbl:  Degeneracy threshold= 1.00D-02
       Occupied  (A) (A) (A) (A) (A) (A) (A) (A) (A) (A) (A) (A)
                 (A) (A) (A) (A) (A) (A) (A) (A) (A) (A) (A) (A)
                 (A) (A) (A) (A) (A) (A) (A) (A) (A) (A) (A) (A)
                 (A) (A) (A) (A) (A) (A) (A) (A) (A) (A) (A) (A)
                 (A) (A) (A) (A) (A) (A) (A) (A) (A) (A) (A) (A)
                 (A) (A) (A) (A) (A) (A) (A) (A) (A) (A) (A) (A)
                 (A) (A) (A) (A) (A) (A) (A) (A) (A) (A) (A) (A)
                 (A) (A) (A) (A) (A) (A) (A) (A) (A) (A) (A) (A)
                 (A) (A) (A) (A) (A) (A) (A) (A) (A) (A)
       Virtual   (A) (A) (A) (A) (A) (A) (A) (A) (A) (A) (A) (A)
                 (A) (A) (A) (A) (A) (A) (A) (A) (A) (A) (A) (A)
                 (A) (A) (A) (A) (A) (A) (A) (A) (A) (A) (A) (A)
                 (A) (A) (A) (A) (A) (A) (A) (A) (A) (A) (A) (A)
                 (A) (A) (A) (A) (A) (A) (A) (A) (A) (A) (A) (A)
                 (A) (A) (A) (A) (A) (A) (A) (A) (A) (A) (A) (A)
                 (A) (A) (A) (A) (A) (A) (A) (A) (A) (A) (A) (A)
                 (A) (A) (A) (A) (A) (A) (A) (A) (A) (A) (A) (A)
                 (A) (A) (A) (A) (A) (A) (A) (A) (A) (A) (A) (A)
                 (A) (A) (A) (A) (A) (A) (A) (A) (A) (A) (A) (A)
                 (A) (A) (A) (A) (A) (A) (A) (A) (A) (A) (A) (A)
                 (A) (A) (A) (A) (A) (A) (A) (A) (A) (A) (A) (A)
                 (A) (A) (A) (A) (A) (A) (A) (A) (A) (A) (A) (A)
                 (A) (A) (A) (A) (A) (A) (A) (A) (A) (A) (A) (A)
                 (A) (A) (A) (A) (A) (A) (A) (A) (A) (A) (A) (A)
                 (A) (A) (A) (A) (A) (A) (A) (A) (A) (A) (A) (A)
                 (A) (A) (A) (A) (A) (A) (A) (A) (A) (A) (A) (A)
                 (A) (A) (A) (A) (A) (A) (A) (A) (A) (A) (A) (A)
                 (A) (A) (A) (A) (A) (A) (A) (A) (A) (A) (A) (A)
                 (A) (A) (A) (A) (A) (A) (A) (A) (A) (A) (A) (A)
                 (A) (A) (A) (A) (A) (A) (A) (A) (A) (A) (A) (A)
                 (A) (A) (A) (A) (A) (A) (A) (A) (A) (A) (A) (A)
                 (A) (A) (A) (A) (A) (A) (A) (A) (A) (A) (A) (A)
                 (A) (A) (A) (A) (A) (A) (A) (A) (A) (A) (A) (A)
                 (A) (A) (A) (A) (A) (A) (A) (A) (A) (A) (A) (A)
                 (A) (A) (A) (A) (A) (A) (A) (A) (A) (A) (A) (A)
                 (A) (A) (A) (A) (A) (A) (A) (A) (A) (A) (A) (A)
                 (A) (A) (A) (A) (A) (A) (A) (A) (A) (A) (A) (A)
                 (A) (A) (A) (A) (A) (A) (A) (A) (A) (A) (A) (A)
                 (A) (A) (A) (A) (A) (A) (A) (A) (A) (A) (A) (A)
                 (A) (A) (A) (A) (A) (A) (A) (A) (A) (A) (A) (A)
 The electronic state is 1-A.
 Alpha  occ. eigenvalues --  -92.04357 -15.87353 -15.71829 -15.68285 -15.67936
 Alpha  occ. eigenvalues --  -15.67885 -15.64045 -15.63186 -15.61993 -11.46065
 Alpha  occ. eigenvalues --  -11.45840 -11.45820 -11.43426 -11.42893 -11.42585
 Alpha  occ. eigenvalues --  -11.41335 -11.41272 -11.39505 -11.38583 -11.38242
 Alpha  occ. eigenvalues --  -11.37883 -11.36878 -11.36743 -11.33660 -11.31285
 Alpha  occ. eigenvalues --  -11.31163 -11.28384 -11.27488  -9.04997  -6.73243
 Alpha  occ. eigenvalues --   -6.73107  -6.72928  -1.51059  -1.42619  -1.40916
 Alpha  occ. eigenvalues --   -1.37228  -1.32442  -1.30078  -1.29282  -1.26527
 Alpha  occ. eigenvalues --   -1.22882  -1.20799  -1.16854  -1.15740  -1.10071
 Alpha  occ. eigenvalues --   -1.09808  -1.08445  -1.07766  -1.07205  -1.04037
 Alpha  occ. eigenvalues --   -1.01782  -1.00375  -0.98135  -0.94778  -0.93236
 Alpha  occ. eigenvalues --   -0.90621  -0.87835  -0.86374  -0.85889  -0.84179
 Alpha  occ. eigenvalues --   -0.83550  -0.81349  -0.81084  -0.80877  -0.78861
 Alpha  occ. eigenvalues --   -0.78542  -0.77748  -0.75677  -0.75022  -0.74669
 Alpha  occ. eigenvalues --   -0.73847  -0.73554  -0.72639  -0.72147  -0.71495
 Alpha  occ. eigenvalues --   -0.69499  -0.69351  -0.68628  -0.67259  -0.66821
 Alpha  occ. eigenvalues --   -0.66736  -0.66439  -0.66279  -0.65627  -0.64214
 Alpha  occ. eigenvalues --   -0.63702  -0.63540  -0.63041  -0.61041  -0.59909
 Alpha  occ. eigenvalues --   -0.59508  -0.58710  -0.58413  -0.56069  -0.55829
 Alpha  occ. eigenvalues --   -0.55009  -0.53908  -0.52733  -0.52276  -0.51075
 Alpha  occ. eigenvalues --   -0.48914  -0.47215  -0.46675  -0.41439  -0.39548
 Alpha  occ. eigenvalues --   -0.35981
 Alpha virt. eigenvalues --    0.01280   0.04358   0.05168   0.05776   0.07853
 Alpha virt. eigenvalues --    0.09063   0.09798   0.09944   0.10208   0.10327
 Alpha virt. eigenvalues --    0.11517   0.12086   0.12219   0.13422   0.13642
 Alpha virt. eigenvalues --    0.14769   0.15349   0.16148   0.16428   0.16775
 Alpha virt. eigenvalues --    0.16880   0.17126   0.17448   0.17930   0.18573
 Alpha virt. eigenvalues --    0.19238   0.19985   0.20398   0.20862   0.20981
 Alpha virt. eigenvalues --    0.21853   0.22510   0.23229   0.23391   0.24154
 Alpha virt. eigenvalues --    0.25100   0.25225   0.25605   0.26635   0.26932
 Alpha virt. eigenvalues --    0.28213   0.28626   0.29519   0.29797   0.30425
 Alpha virt. eigenvalues --    0.30598   0.32826   0.33235   0.34223   0.34856
 Alpha virt. eigenvalues --    0.35341   0.36231   0.37338   0.39446   0.39662
 Alpha virt. eigenvalues --    0.41280   0.41745   0.44148   0.45770   0.47650
 Alpha virt. eigenvalues --    0.48450   0.50041   0.50678   0.52355   0.53187
 Alpha virt. eigenvalues --    0.53777   0.54066   0.54440   0.56458   0.57588
 Alpha virt. eigenvalues --    0.58608   0.58848   0.60380   0.61455   0.62195
 Alpha virt. eigenvalues --    0.64020   0.65019   0.65360   0.65814   0.67028
 Alpha virt. eigenvalues --    0.67868   0.68919   0.69779   0.70613   0.70668
 Alpha virt. eigenvalues --    0.71051   0.71186   0.72009   0.72852   0.73074
 Alpha virt. eigenvalues --    0.73635   0.74484   0.75486   0.76001   0.76240
 Alpha virt. eigenvalues --    0.76571   0.77341   0.77750   0.78030   0.79565
 Alpha virt. eigenvalues --    0.79852   0.80128   0.81041   0.81577   0.82275
 Alpha virt. eigenvalues --    0.83362   0.83760   0.84531   0.84993   0.86063
 Alpha virt. eigenvalues --    0.86429   0.87825   0.88038   0.88520   0.89478
 Alpha virt. eigenvalues --    0.89888   0.90774   0.91657   0.92360   0.92679
 Alpha virt. eigenvalues --    0.94133   0.94455   0.95023   0.95640   0.95942
 Alpha virt. eigenvalues --    0.96305   0.97003   0.97510   0.97851   0.98146
 Alpha virt. eigenvalues --    0.98525   0.98996   0.99757   1.00188   1.00522
 Alpha virt. eigenvalues --    1.00811   1.01198   1.01352   1.02148   1.02348
 Alpha virt. eigenvalues --    1.03377   1.03740   1.03931   1.04935   1.05066
 Alpha virt. eigenvalues --    1.05689   1.06502   1.06733   1.07565   1.08018
 Alpha virt. eigenvalues --    1.08257   1.08742   1.09502   1.10152   1.10244
 Alpha virt. eigenvalues --    1.10966   1.11440   1.12015   1.12922   1.13464
 Alpha virt. eigenvalues --    1.14465   1.15302   1.15817   1.17626   1.17870
 Alpha virt. eigenvalues --    1.18313   1.18841   1.19596   1.21034   1.21650
 Alpha virt. eigenvalues --    1.22457   1.23648   1.24924   1.27264   1.27811
 Alpha virt. eigenvalues --    1.28918   1.29922   1.31137   1.32226   1.32448
 Alpha virt. eigenvalues --    1.34501   1.35201   1.36358   1.36837   1.39463
 Alpha virt. eigenvalues --    1.39805   1.40608   1.41798   1.42422   1.47207
 Alpha virt. eigenvalues --    1.47806   1.48939   1.49862   1.50961   1.54087
 Alpha virt. eigenvalues --    1.55889   1.56397   1.57197   1.58255   1.59560
 Alpha virt. eigenvalues --    1.59954   1.61737   1.64009   1.64602   1.65056
 Alpha virt. eigenvalues --    1.66325   1.66533   1.67998   1.68504   1.69536
 Alpha virt. eigenvalues --    1.70545   1.71115   1.72105   1.72551   1.73616
 Alpha virt. eigenvalues --    1.76070   1.76463   1.77425   1.78954   1.81014
 Alpha virt. eigenvalues --    1.85170   1.87275   1.88271   1.89010   1.89457
 Alpha virt. eigenvalues --    1.91308   1.93799   1.95318   1.96802   1.97034
 Alpha virt. eigenvalues --    1.97762   1.98822   2.00797   2.02072   2.02357
 Alpha virt. eigenvalues --    2.03089   2.04144   2.04620   2.05838   2.06451
 Alpha virt. eigenvalues --    2.07548   2.07644   2.08800   2.10510   2.10729
 Alpha virt. eigenvalues --    2.11162   2.13087   2.13569   2.14442   2.14801
 Alpha virt. eigenvalues --    2.15247   2.15857   2.16008   2.17701   2.18690
 Alpha virt. eigenvalues --    2.19121   2.19688   2.21124   2.21572   2.22035
 Alpha virt. eigenvalues --    2.23856   2.24328   2.25235   2.25645   2.28532
 Alpha virt. eigenvalues --    2.30056   2.31481   2.32311   2.33453   2.34166
 Alpha virt. eigenvalues --    2.35336   2.36364   2.37350   2.38128   2.39028
 Alpha virt. eigenvalues --    2.39894   2.41790   2.42663   2.44671   2.45272
 Alpha virt. eigenvalues --    2.45609   2.46034   2.47361   2.47604   2.48406
 Alpha virt. eigenvalues --    2.50305   2.51627   2.52961   2.53569   2.54413
 Alpha virt. eigenvalues --    2.56526   2.56664   2.57697   2.58661   2.58726
 Alpha virt. eigenvalues --    2.60802   2.61597   2.63123   2.63891   2.66057
 Alpha virt. eigenvalues --    2.66700   2.67517   2.68330   2.70610   2.71229
 Alpha virt. eigenvalues --    2.71606   2.71850   2.73752   2.75348   2.79017
 Alpha virt. eigenvalues --    2.79669   2.80063   2.83606   2.84268   2.86378
 Alpha virt. eigenvalues --    2.87196   2.88000   2.91911   2.93297   2.93913
 Alpha virt. eigenvalues --    2.95816   2.99472   2.99821   3.00177   3.00783
 Alpha virt. eigenvalues --    3.01396   3.02383   3.05477   3.09063   3.09229
 Alpha virt. eigenvalues --    3.10075   3.10619   3.11492   3.12754   3.15992
 Alpha virt. eigenvalues --    3.18194   3.27239   3.30690   3.32871   3.42629
 Alpha virt. eigenvalues --    3.47958   3.53056   3.62707   3.73974   4.22906
 Alpha virt. eigenvalues --    4.27441   4.33426   4.33961   4.40426   4.41291
 Alpha virt. eigenvalues --    4.47092   4.47365   4.48877   4.49788   4.51712
 Alpha virt. eigenvalues --    4.53519   4.54761   4.59152   4.60632   4.64156
 Alpha virt. eigenvalues --    4.65373   4.68197   4.70912   4.72375   4.73509
 Alpha virt. eigenvalues --    4.76430   4.79652   4.80288   4.91542   4.93055
 Alpha virt. eigenvalues --    4.99899   5.19450
          Condensed to atoms (all electrons):
 Mulliken charges:
               1
     1  C   -0.525502
     2  C    0.289357
     3  C   -0.293219
     4  C    0.138595
     5  C    0.919609
     6  C    0.107980
     7  C   -0.114249
     8  N   -0.887224
     9  C   -0.514536
    10  C    0.653161
    11  C   -0.108652
    12  C    0.110465
    13  C   -0.358286
    14  C    0.306879
    15  C   -0.160131
    16  C   -0.163548
    17  N   -0.629859
    18  C   -0.338712
    19  C   -0.165266
    20  C   -0.165778
    21  C   -0.117619
    22  N   -0.648343
    23  N   -0.433118
    24  N   -0.604685
    25  N   -0.682943
    26  N   -0.748785
    27  S    0.480265
    28  N   -0.669687
    29  H    0.219034
    30  H    0.231386
    31  H    0.430969
    32  H    0.242243
    33  H    0.200141
    34  H    0.229439
    35  H    0.236864
    36  H    0.234986
    37  H    0.172991
    38  H    0.242302
    39  H    0.253872
    40  H    0.245069
    41  H    0.257032
    42  H    0.247076
    43  H    0.173077
    44  H    0.182751
    45  H    0.220445
    46  H    0.439359
    47  H    0.245091
    48  H    0.247029
    49  H    0.246923
    50  H    0.197181
    51  H    0.174456
    52  H    0.173628
    53  H    0.184903
    54  H    0.187582
    55  H    0.208003
 Sum of Mulliken charges =   1.00000
 Mulliken charges with hydrogens summed into heavy atoms:
               1
     1  C    0.054986
     2  C    0.289357
     3  C   -0.074185
     4  C    0.138595
     5  C    0.919609
     6  C    0.339365
     7  C   -0.114249
     8  N   -0.456255
     9  C    0.030730
    10  C    0.653161
    11  C    0.333732
    12  C    0.110465
    13  C    0.108017
    14  C    0.306879
    15  C    0.247846
    16  C    0.332626
    17  N   -0.629859
    18  C    0.400331
    19  C    0.336836
    20  C    0.254375
    21  C    0.285577
    22  N   -0.648343
    23  N   -0.433118
    24  N   -0.604685
    25  N   -0.243584
    26  N   -0.748785
    27  S    0.480265
    28  N   -0.669687
 DipInt: DoE/N= T F RetVal/Mat= T F Init=T NMatP=  1 IDeriv=0 Min/MaxMlt=  0  4
 Entering OneElI...
 OneElI was handed  8589351073 working-precision words.
 Multipole integrals L=0 to 4 MinM= 0 MaxM= 0.
 Requested accuracy = 0.1000D-12
 PrtBox:  NBox=     1 Levels=  1 BoxLen=   42.88 SMaxX=       25.82
          Shift=           13.356480            8.749196            5.693905
 Box      1 Number                   0 centers from      1 to    167:
 ShPair: Thresh= 1.00D-13 NBox=     1 BxSize= 4.29D+01 RnKept= 2.17D+01
         NSMCal=                14028 NSMKep=                9407
 PrmmSu-InSpLW:  IPartL=    0 NPrtUS=    1 NPrtUL=    1 DoSpLW=F IThBeg=    0 IThEnd=    0 NThAct=    1.
 PrSmSu:  IncTry=   512 NBBP=           9407 NTPThr=   100 NPartT=    1 Incr=          94 LDynOK=F GPUOK=F.
 PrsmSu:  NPrtUS=   1 ThrOK=F IAlg=2 LenDen=           0 ISkipM=0 DoSpLW=F IThBeg=    0 IThEnd=    0.
 Prism:   IPart=     0 DynPar=F LinDyn=F Incr=          94.
 PRISM was handed  8588535722 working-precision words and  9407 shell-pairs
 IPart=  0 NShTot=        9407 NBatch=         214 AvBLen=        44.0
 PrsmSu-ThDecC:  IPartSL=    0    0 NPrtUSL=    1    1 IThBeg=    0 IThEnd=    0 CPU=   -1 GPU=   -1 NThAct=    1.
 PrSmSu:  NxtVal=             95.
 Electronic moments (au):
       -212.00000000         -9.74124152         -1.93864060         -2.02355293
      -9188.75018883      -3379.40533007      -1420.82855606         27.54967118
          9.33075806          0.79162989       2676.57432850      -3151.03255387
      -4556.78567392      -7061.61705818      21434.38735380       8330.59890292
       3739.05901208      -1077.76917319       3369.16756793       3670.00130180
    -785125.30731109    -132139.09821917     -46659.60715973      29470.01599301
     -60106.13717004      20910.48787901      14213.29443312        878.99758120
      -9679.24546231    -155061.92303589     -42866.01887080     -15029.96572891
     -22305.56174723      -4488.29973127      -9091.95918876
 Electronic spatial extent (au):  <R**2>=          13988.9841
 DipInt: DoE/N= F T RetVal/Mat= T F Init=T NMatP=  1 IDeriv=0 Min/MaxMlt=  0  4
 Nuclear    moments (au):
        213.00000000          0.00000000          0.00000000         -0.00000000
       9177.56587053       3270.00655945       1289.97809138          0.00000196
          0.02988644         -0.12991134      -3499.80510912       3162.64073243
       4435.68806610       6890.19122482     -21770.38055883      -8519.11276372
      -3872.64252624       1012.49580234      -3431.59077510      -3737.69969929
     766823.82225837     120940.31092975      40868.62265293     -27056.47528022
      62006.58521161     -20091.98717571     -14285.89687158       -597.53806413
       9510.98939498     149090.81345318      37368.06719294      12174.58760162
      23052.24291604       4774.45587267       9423.19642063
 Total      moments (au):
          1.00000000         -9.74124152         -1.93864060         -2.02355293
        -11.18431830       -109.39877062       -130.85046468         27.54967314
          9.36064450          0.66171855       -823.23078062         11.60817856
       -121.09760782       -171.42583337       -335.99320502       -188.51386080
       -133.58351415        -65.27337085        -62.42320717        -67.69839749
     -18301.48505272     -11198.78728942      -5790.98450680       2413.54071279
       1900.44804157        818.50070330        -72.60243846        281.45951707
       -168.25606733      -5971.10958271      -5497.95167786      -2855.37812729
        746.68116881        286.15614141        331.23723188
 Traceless Quadrup. (au):
         72.62686623        -25.58758608        -47.03928015         27.54967314
          9.36064450          0.66171855
 Charge=              1.0000 electrons
 Dipole moment (field-independent basis, Debye):
    X=            -24.7598    Y=             -4.9275    Z=             -5.1434  Tot=             25.7639
 Quadrupole moment (field-independent basis, Debye-Ang):
   XX=            -15.0433   YY=           -147.1451   ZZ=           -175.9984
   XY=             37.0553   XZ=             12.5904   YZ=              0.8900
 Traceless Quadrupole moment (field-independent basis, Debye-Ang):
   XX=             97.6856   YY=            -34.4162   ZZ=            -63.2694
   XY=             37.0553   XZ=             12.5904   YZ=              0.8900
 Octapole moment (field-independent basis, Debye-Ang**2):
  XXX=           -585.9440  YYY=              8.2623  ZZZ=            -86.1926  XYY=           -122.0143
  XXY=           -239.1470  XXZ=           -134.1769  XZZ=            -95.0796  YZZ=            -46.4591
  YYZ=            -44.4304  XYZ=            -48.1851
 Hexadecapole moment (field-independent basis, Debye-Ang**3):
 XXXX=          -6893.2169 YYYY=          -4218.0003 ZZZZ=          -2181.1625 XXXY=            909.0552
 XXXZ=            715.7999 YYYX=            308.2866 YYYZ=            -27.3456 ZZZX=            106.0112
 ZZZY=            -63.3733 XXYY=          -2249.0062 XXZZ=          -2070.7922 YYZZ=          -1075.4723
 XXYZ=            281.2359 YYXZ=            107.7801 ZZXY=            124.7598
 N-N= 2.826920628935D+03 E-N=-9.307293416964D+03  KE= 1.565227679611D+03
 Entering OneElI...
 OneElI was handed  8589463646 working-precision words.
 Calculate electrostatic properties
    NBasis =   478  MinDer = 0  MaxDer = 0
    NGrid  =    55  NMatD  =   1
 Requested accuracy = 0.1000D-12
 PrtBox:  NBox=     1 Levels=  1 BoxLen=   35.73 SMaxX=       25.82
          Shift=           13.356480            8.749196            5.693905
 Box      1 Number                   0 centers from      1 to    167:
 ShPair: Thresh= 1.00D-13 NBox=     1 BxSize= 3.57D+01 RnKept= 1.88D+01
         NSMCal=                14028 NSMKep=                7791
 PrmmSu-InSpLW:  IPartL=    0 NPrtUS=   32 NPrtUL=    1 DoSpLW=F IThBeg=    0 IThEnd=   31 NThAct=   32.
 PrSmSu:  IncTry=   512 NBBP=         428505 NTPThr=   100 NPartT=   32 Incr=         133 LDynOK=F GPUOK=F.
 PrsmSu:  NPrtUS=  32 ThrOK=T IAlg=2 LenDen=           0 ISkipM=0 DoSpLW=F IThBeg=    0 IThEnd=   31.
 Prism:   IPart=     0 DynPar=F LinDyn=F Incr=         133.
 PRISM was handed   268186285 working-precision words and  7791 shell-pairs
 PRISM was handed   268186285 working-precision words and  7791 shell-pairs
 PRISM was handed   268186285 working-precision words and  7791 shell-pairs
 PRISM was handed   268186285 working-precision words and  7791 shell-pairs
 PRISM was handed   268186285 working-precision words and  7791 shell-pairs
 PRISM was handed   268186285 working-precision words and  7791 shell-pairs
 PRISM was handed   268186285 working-precision words and  7791 shell-pairs
 PRISM was handed   268186285 working-precision words and  7791 shell-pairs
 PRISM was handed   268186285 working-precision words and  7791 shell-pairs
 PRISM was handed   268186285 working-precision words and  7791 shell-pairs
 PRISM was handed   268186285 working-precision words and  7791 shell-pairs
 PRISM was handed   268186285 working-precision words and  7791 shell-pairs
 PRISM was handed   268186285 working-precision words and  7791 shell-pairs
 PRISM was handed   268186285 working-precision words and  7791 shell-pairs
 PRISM was handed   268186285 working-precision words and  7791 shell-pairs
 PRISM was handed   268186285 working-precision words and  7791 shell-pairs
 PRISM was handed   268186285 working-precision words and  7791 shell-pairs
 PRISM was handed   268186285 working-precision words and  7791 shell-pairs
 PRISM was handed   268186285 working-precision words and  7791 shell-pairs
 PRISM was handed   268186285 working-precision words and  7791 shell-pairs
 PRISM was handed   268186285 working-precision words and  7791 shell-pairs
 PRISM was handed   268186285 working-precision words and  7791 shell-pairs
 PRISM was handed   268186285 working-precision words and  7791 shell-pairs
 PRISM was handed   268186285 working-precision words and  7791 shell-pairs
 PRISM was handed   268186285 working-precision words and  7791 shell-pairs
 PRISM was handed   268186285 working-precision words and  7791 shell-pairs
 PRISM was handed   268186285 working-precision words and  7791 shell-pairs
 PRISM was handed   268186285 working-precision words and  7791 shell-pairs
 PRISM was handed   268186285 working-precision words and  7791 shell-pairs
 PRISM was handed   268186285 working-precision words and  7791 shell-pairs
 PRISM was handed   268186285 working-precision words and  7791 shell-pairs
 PRISM was handed   268186285 working-precision words and  7791 shell-pairs
 IPart= 22 NShTot=       12980 NBatch=         281 AvBLen=        46.2
 PrsmSu-ThDecC:  IPartSL=   22    0 NPrtUSL=   32    1 IThBeg=    0 IThEnd=   31 CPU=   -1 GPU=   -1 NThAct=   32.
 IPart=  1 NShTot=       14520 NBatch=         314 AvBLen=        46.2
 PrsmSu-ThDecC:  IPartSL=    1    0 NPrtUSL=   32    1 IThBeg=    0 IThEnd=   31 CPU=   -1 GPU=   -1 NThAct=   31.
 IPart=  6 NShTot=       14025 NBatch=         305 AvBLen=        46.0
 IPart= 25 NShTot=       12705 NBatch=         274 AvBLen=        46.4
 PrsmSu-ThDecC:  IPartSL=    6    0 NPrtUSL=   32    1 IThBeg=    0 IThEnd=   31 CPU=   -1 GPU=   -1 NThAct=   30.
 IPart=  7 NShTot=       13915 NBatch=         301 AvBLen=        46.2
 PrsmSu-ThDecC:  IPartSL=    7    0 NPrtUSL=   32    1 IThBeg=    0 IThEnd=   31 CPU=   -1 GPU=   -1 NThAct=   29.
 IPart= 31 NShTot=       12265 NBatch=         265 AvBLen=        46.3
 PrsmSu-ThDecC:  IPartSL=   31    0 NPrtUSL=   32    1 IThBeg=    0 IThEnd=   31 CPU=   -1 GPU=   -1 NThAct=   28.
 IPart= 27 NShTot=       12705 NBatch=         274 AvBLen=        46.4
 PrsmSu-ThDecC:  IPartSL=   27    0 NPrtUSL=   32    1 IThBeg=    0 IThEnd=   31 CPU=   -1 GPU=   -1 NThAct=   27.
 PrsmSu-ThDecC:  IPartSL=   25    0 NPrtUSL=   32    1 IThBeg=    0 IThEnd=   31 CPU=   -1 GPU=   -1 NThAct=   26.
 IPart= 30 NShTot=       12320 NBatch=         266 AvBLen=        46.3
 PrsmSu-ThDecC:  IPartSL=   30    0 NPrtUSL=   32    1 IThBeg=    0 IThEnd=   31 CPU=   -1 GPU=   -1 NThAct=   25.
 IPart= 13 NShTot=       13530 NBatch=         292 AvBLen=        46.3
 PrsmSu-ThDecC:  IPartSL=   13    0 NPrtUSL=   32    1 IThBeg=    0 IThEnd=   31 CPU=   -1 GPU=   -1 NThAct=   24.
 IPart=  5 NShTot=       14080 NBatch=         306 AvBLen=        46.0
 PrsmSu-ThDecC:  IPartSL=    5    0 NPrtUSL=   32    1 IThBeg=    0 IThEnd=   31 CPU=   -1 GPU=   -1 NThAct=   23.
 IPart=  0 NShTot=       15125 NBatch=         334 AvBLen=        45.3
 PrsmSu-ThDecC:  IPartSL=    0    0 NPrtUSL=   32    1 IThBeg=    0 IThEnd=   31 CPU=   -1 GPU=   -1 NThAct=   22.
 IPart= 23 NShTot=       12815 NBatch=         278 AvBLen=        46.1
 PrsmSu-ThDecC:  IPartSL=   23    0 NPrtUSL=   32    1 IThBeg=    0 IThEnd=   31 CPU=   -1 GPU=   -1 NThAct=   21.
 IPart= 10 NShTot=       13750 NBatch=         297 AvBLen=        46.3
 IPart= 20 NShTot=       13090 NBatch=         284 AvBLen=        46.1
 IPart= 28 NShTot=       12375 NBatch=         267 AvBLen=        46.3
 IPart= 17 NShTot=       13310 NBatch=         288 AvBLen=        46.2
 IPart=  3 NShTot=       14190 NBatch=         308 AvBLen=        46.1
 IPart=  8 NShTot=       13805 NBatch=         299 AvBLen=        46.2
 IPart=  9 NShTot=       13750 NBatch=         297 AvBLen=        46.3
 IPart= 15 NShTot=       13420 NBatch=         290 AvBLen=        46.3
 IPart= 19 NShTot=       13145 NBatch=         285 AvBLen=        46.1
 IPart= 11 NShTot=       13750 NBatch=         297 AvBLen=        46.3
 IPart= 12 NShTot=       13640 NBatch=         294 AvBLen=        46.4
 IPart= 24 NShTot=       12760 NBatch=         277 AvBLen=        46.1
 IPart= 16 NShTot=       13365 NBatch=         289 AvBLen=        46.2
 PrsmSu-ThDecC:  IPartSL=   10    0 NPrtUSL=   32    1 IThBeg=    0 IThEnd=   31 CPU=   -1 GPU=   -1 NThAct=   20.
 PrsmSu-ThDecC:  IPartSL=   12    0 NPrtUSL=   32    1 IThBeg=    0 IThEnd=   31 CPU=   -1 GPU=   -1 NThAct=   19.
 PrsmSu-ThDecC:  IPartSL=   11    0 NPrtUSL=   32    1 IThBeg=    0 IThEnd=   31 CPU=   -1 GPU=   -1 NThAct=   18.
 PrsmSu-ThDecC:  IPartSL=   15    0 NPrtUSL=   32    1 IThBeg=    0 IThEnd=   31 CPU=   -1 GPU=   -1 NThAct=   17.
 IPart=  2 NShTot=       14300 NBatch=         310 AvBLen=        46.1
 PrsmSu-ThDecC:  IPartSL=   20    0 NPrtUSL=   32    1 IThBeg=    0 IThEnd=   31 CPU=   -1 GPU=   -1 NThAct=   16.
 IPart= 29 NShTot=       12375 NBatch=         267 AvBLen=        46.3
 PrsmSu-ThDecC:  IPartSL=    2    0 NPrtUSL=   32    1 IThBeg=    0 IThEnd=   31 CPU=   -1 GPU=   -1 NThAct=   15.
 PrsmSu-ThDecC:  IPartSL=   29    0 NPrtUSL=   32    1 IThBeg=    0 IThEnd=   31 CPU=   -1 GPU=   -1 NThAct=   14.
 IPart= 21 NShTot=       12980 NBatch=         281 AvBLen=        46.2
 PrsmSu-ThDecC:  IPartSL=   16    0 NPrtUSL=   32    1 IThBeg=    0 IThEnd=   31 CPU=   -1 GPU=   -1 NThAct=   13.
 IPart= 14 NShTot=       13530 NBatch=         292 AvBLen=        46.3
 PrsmSu-ThDecC:  IPartSL=   21    0 NPrtUSL=   32    1 IThBeg=    0 IThEnd=   31 CPU=   -1 GPU=   -1 NThAct=   12.
 PrsmSu-ThDecC:  IPartSL=   14    0 NPrtUSL=   32    1 IThBeg=    0 IThEnd=   31 CPU=   -1 GPU=   -1 NThAct=   11.
 IPart= 26 NShTot=       12705 NBatch=         274 AvBLen=        46.4
 PrsmSu-ThDecC:  IPartSL=   19    0 NPrtUSL=   32    1 IThBeg=    0 IThEnd=   31 CPU=   -1 GPU=   -1 NThAct=   10.
 PrsmSu-ThDecC:  IPartSL=   26    0 NPrtUSL=   32    1 IThBeg=    0 IThEnd=   31 CPU=   -1 GPU=   -1 NThAct=    9.
 PrsmSu-ThDecC:  IPartSL=    8    0 NPrtUSL=   32    1 IThBeg=    0 IThEnd=   31 CPU=   -1 GPU=   -1 NThAct=    8.
 IPart= 18 NShTot=       13145 NBatch=         285 AvBLen=        46.1
 PrsmSu-ThDecC:  IPartSL=   18    0 NPrtUSL=   32    1 IThBeg=    0 IThEnd=   31 CPU=   -1 GPU=   -1 NThAct=    7.
 PrsmSu-ThDecC:  IPartSL=    9    0 NPrtUSL=   32    1 IThBeg=    0 IThEnd=   31 CPU=   -1 GPU=   -1 NThAct=    6.
 PrsmSu-ThDecC:  IPartSL=   17    0 NPrtUSL=   32    1 IThBeg=    0 IThEnd=   31 CPU=   -1 GPU=   -1 NThAct=    5.
 PrsmSu-ThDecC:  IPartSL=    3    0 NPrtUSL=   32    1 IThBeg=    0 IThEnd=   31 CPU=   -1 GPU=   -1 NThAct=    4.
 PrsmSu-ThDecC:  IPartSL=   24    0 NPrtUSL=   32    1 IThBeg=    0 IThEnd=   31 CPU=   -1 GPU=   -1 NThAct=    3.
 IPart=  4 NShTot=       14135 NBatch=         307 AvBLen=        46.0
 PrsmSu-ThDecC:  IPartSL=    4    0 NPrtUSL=   32    1 IThBeg=    0 IThEnd=   31 CPU=   -1 GPU=   -1 NThAct=    2.
 PrsmSu-ThDecC:  IPartSL=   28    0 NPrtUSL=   32    1 IThBeg=    0 IThEnd=   31 CPU=   -1 GPU=   -1 NThAct=    1.
 PrSmSu:  NxtVal=           4257.
 --------------------------------------------------------
       Center         ----      EFG at Nuclei      ----
                      3XX-RR        3YY-RR        3ZZ-RR
 --------------------------------------------------------
     1   Atom        0.002092     -0.019821      0.017729
     2   Atom        0.154438      0.245981     -0.400419
     3   Atom       -0.001253      0.049443     -0.048190
     4   Atom        0.263698      0.003414     -0.267112
     5   Atom        0.152202      0.221290     -0.373492
     6   Atom        0.250521      0.222336     -0.472857
     7   Atom        0.067466      0.009573     -0.077040
     8   Atom       -0.442583     -0.525700      0.968283
     9   Atom       -0.022038      0.002411      0.019627
    10   Atom        0.104255      0.295254     -0.399509
    11   Atom        0.063509     -0.096811      0.033302
    12   Atom       -0.023560      0.076662     -0.053102
    13   Atom       -0.045960      0.044309      0.001651
    14   Atom        0.097786     -0.079638     -0.018148
    15   Atom       -0.129350      0.115025      0.014325
    16   Atom        0.223847     -0.447359      0.223512
    17   Atom        0.649563     -0.357023     -0.292540
    18   Atom        0.025062      0.169298     -0.194360
    19   Atom       -0.343092      0.114276      0.228816
    20   Atom        0.123118     -0.140013      0.016894
    21   Atom       -0.056617      0.057375     -0.000758
    22   Atom       -0.253911     -0.477128      0.731038
    23   Atom        0.240055     -0.149450     -0.090605
    24   Atom       -0.540595     -0.534793      1.075388
    25   Atom        0.015497      0.030576     -0.046073
    26   Atom       -0.562449      0.725278     -0.162829
    27   Atom        0.171672     -2.306929      2.135258
    28   Atom       -0.174915      0.255464     -0.080550
    29   Atom       -0.244111      0.077368      0.166743
    30   Atom        0.133714     -0.260730      0.127015
    31   Atom       -0.243620      0.037021      0.206599
    32   Atom       -0.066486      0.133609     -0.067123
    33   Atom        0.145076     -0.137872     -0.007204
    34   Atom       -0.202921      0.101545      0.101376
    35   Atom        0.144734     -0.271714      0.126980
    36   Atom        0.134648     -0.281522      0.146874
    37   Atom        0.054599      0.089278     -0.143877
    38   Atom       -0.238305      0.089256      0.149049
    39   Atom        0.088015      0.070354     -0.158369
    40   Atom        0.122506     -0.275635      0.153129
    41   Atom        0.056645      0.101723     -0.158369
    42   Atom       -0.221089      0.076293      0.144796
    43   Atom        0.065374      0.077604     -0.142978
    44   Atom       -0.102040      0.051558      0.050482
    45   Atom        0.092802      0.009200     -0.102002
    46   Atom        0.067573      0.095446     -0.163020
    47   Atom       -0.223146      0.091712      0.131435
    48   Atom        0.058658      0.093892     -0.152549
    49   Atom        0.148505     -0.286638      0.138132
    50   Atom        0.110860     -0.184043      0.073183
    51   Atom       -0.048909      0.054769     -0.005861
    52   Atom        0.053785      0.127707     -0.181492
    53   Atom        0.024378      0.142722     -0.167100
    54   Atom       -0.033531      0.130238     -0.096707
    55   Atom        0.052511     -0.193308      0.140798
 --------------------------------------------------------
                        XY            XZ            YZ
 --------------------------------------------------------
     1   Atom        0.069238     -0.009008      0.001324
     2   Atom       -0.045504     -0.036143     -0.108023
     3   Atom        0.029031     -0.009262     -0.018695
     4   Atom       -0.115314     -0.023343     -0.041388
     5   Atom        0.052437     -0.066821     -0.139055
     6   Atom        0.045104     -0.066360     -0.180303
     7   Atom        0.012885     -0.010405     -0.002892
     8   Atom        0.076444      0.123262      0.281600
     9   Atom        0.045678     -0.016922      0.004683
    10   Atom       -0.076551     -0.072338     -0.192919
    11   Atom       -0.031325      0.120904      0.165267
    12   Atom       -0.125777     -0.139221     -0.054990
    13   Atom       -0.082305     -0.110932     -0.068939
    14   Atom        0.189998      0.217738      0.139013
    15   Atom        0.058010     -0.016428     -0.030728
    16   Atom        0.005872     -0.001628     -0.054550
    17   Atom        0.444703     -0.181056     -0.031700
    18   Atom       -0.096978     -0.285265     -0.145684
    19   Atom        0.255056      0.035058     -0.018512
    20   Atom       -0.051141     -0.050486     -0.018729
    21   Atom        0.022280      0.197811      0.017597
    22   Atom        0.096848      0.641752      0.230218
    23   Atom        0.421741      0.507256      0.330544
    24   Atom        0.120921     -0.383714     -0.424209
    25   Atom       -0.032210      0.001574      0.010364
    26   Atom        0.089427      0.006976     -0.219440
    27   Atom       -0.245863      0.198230      0.770693
    28   Atom        0.653498     -0.103562     -0.114622
    29   Atom       -0.151993      0.057400      0.028241
    30   Atom       -0.049786      0.012807      0.103525
    31   Atom       -0.209131      0.089317      0.058467
    32   Atom        0.009060     -0.204059      0.013679
    33   Atom        0.019090      0.023300     -0.205615
    34   Atom        0.125890      0.109329     -0.046877
    35   Atom        0.005797     -0.008457      0.068663
    36   Atom       -0.010116     -0.006761     -0.027126
    37   Atom       -0.060585      0.140103      0.115567
    38   Atom        0.117454      0.036402     -0.017244
    39   Atom       -0.062659      0.145643      0.123360
    40   Atom       -0.039082     -0.004015     -0.015570
    41   Atom       -0.049017      0.147541      0.127255
    42   Atom        0.145045      0.024897     -0.018164
    43   Atom       -0.065642      0.137442      0.119070
    44   Atom        0.151338     -0.149621      0.101960
    45   Atom       -0.077513     -0.099040     -0.173979
    46   Atom       -0.079447      0.172874      0.145762
    47   Atom        0.149783      0.035820     -0.028858
    48   Atom       -0.080714      0.147650      0.127755
    49   Atom       -0.010249     -0.014983     -0.013415
    50   Atom       -0.097323      0.049926      0.168519
    51   Atom       -0.130833     -0.176518     -0.119619
    52   Atom        0.046594      0.177184     -0.078333
    53   Atom        0.024250      0.199792     -0.026906
    54   Atom       -0.046503     -0.215645     -0.061347
    55   Atom       -0.176064      0.035566      0.068544
 --------------------------------------------------------


 ---------------------------------------------------------------------------------
              Nuclear Quadrupole Coupling Constant in Principal Axis System
 ---------------------------------------------------------------------------------

       Atom             a.u.   MegaHertz   Gauss  10(-4) cm-1        Axes

              Baa    -0.5968     2.866     1.023     0.956 -0.3482  0.9270 -0.1394
     8 N(14)  Bbb    -0.4352     2.090     0.746     0.697  0.9330  0.3282 -0.1478
              Bcc     1.0320    -4.956    -1.768    -1.653  0.0913  0.1815  0.9791
 
              Baa    -0.5309     2.550     0.910     0.850 -0.3693  0.9157 -0.1588
    17 N(14)  Bbb    -0.3156     1.516     0.541     0.506  0.0885  0.2047  0.9748
              Bcc     0.8465    -4.066    -1.451    -1.356  0.9251  0.3459 -0.1567
 
              Baa    -0.5742     2.758     0.984     0.920  0.8517  0.2466 -0.4623
    22 N(14)  Bbb    -0.5131     2.464     0.879     0.822 -0.2914  0.9562 -0.0266
              Bcc     1.0872    -5.222    -1.863    -1.742  0.4355  0.1574  0.8863
 
              Baa    -0.4666     2.241     0.800     0.747 -0.3929 -0.3597  0.8463
    23 N(14)  Bbb    -0.4188     2.012     0.718     0.671 -0.5786  0.8120  0.0765
              Bcc     0.8854    -4.252    -1.517    -1.418  0.7147  0.4597  0.5271
 
              Baa    -0.6599     3.169     1.131     1.057 -0.6179  0.7843  0.0551
    24 N(14)  Bbb    -0.6095     2.927     1.045     0.976  0.7558  0.5733  0.3164
              Bcc     1.2694    -6.097    -2.175    -2.034 -0.2166 -0.2372  0.9470
 
              Baa    -0.0481     0.231     0.082     0.077 -0.1128 -0.1750  0.9781
    25 N(14)  Bbb    -0.0085     0.041     0.015     0.014  0.7816  0.5921  0.1961
              Bcc     0.0566    -0.272    -0.097    -0.091 -0.6135  0.7866  0.0700
 
              Baa    -0.5699     2.737     0.977     0.913  0.9951 -0.0788 -0.0595
    26 N(14)  Bbb    -0.2120     1.018     0.363     0.340  0.0756  0.2205  0.9725
              Bcc     0.7820    -3.756    -1.340    -1.253  0.0635  0.9722 -0.2253
 
              Baa    -0.6482     3.113     1.111     1.038  0.8118 -0.5832  0.0303
    28 N(14)  Bbb    -0.1082     0.520     0.185     0.173  0.0811  0.1641  0.9831
              Bcc     0.7565    -3.633    -1.296    -1.212  0.5783  0.7956 -0.1805
 

 ---------------------------------------------------------------------------------

 No NMR shielding tensors so no spin-rotation constants.
 Leave Link  601 at Tue Oct 21 13:42:49 2025, MaxMem=  8589934592 cpu:               3.0 elap:               0.4
 (Enter /appl/soft/chem/gaussian/G16RevC.02/g16/l602.exe)
 FitSet:  NAtFit=    55 NAtPot=    55 NAtFrz=     0 MDM=    59 TotChg=   1.00000
 Merz-Kollman atomic radii used.
 Atom Element Radius
    1     6    1.50
    2     6    1.50
    3     6    1.50
    4     6    1.50
    5     6    1.50
    6     6    1.50
    7     6    1.50
    8     7    1.50
    9     6    1.50
   10     6    1.50
   11     6    1.50
   12     6    1.50
   13     6    1.50
   14     6    1.50
   15     6    1.50
   16     6    1.50
   17     7    1.50
   18     6    1.50
   19     6    1.50
   20     6    1.50
   21     6    1.50
   22     7    1.50
   23     7    1.50
   24     7    1.50
   25     7    1.50
   26     7    1.50
   27    16    1.75
   28     7    1.50
   29     1    1.20
   30     1    1.20
   31     1    1.20
   32     1    1.20
   33     1    1.20
   34     1    1.20
   35     1    1.20
   36     1    1.20
   37     1    1.20
   38     1    1.20
   39     1    1.20
   40     1    1.20
   41     1    1.20
   42     1    1.20
   43     1    1.20
   44     1    1.20
   45     1    1.20
   46     1    1.20
   47     1    1.20
   48     1    1.20
   49     1    1.20
   50     1    1.20
   51     1    1.20
   52     1    1.20
   53     1    1.20
   54     1    1.20
   55     1    1.20
 Generate VDW surfaces: Layer= 4 Dens= 1 Start= 1.400 Inc= 0.200

 **********************************************************************

            Electrostatic Properties Using The SCF Density.

 **********************************************************************

       Atomic Center    1 is at   5.893080 -3.681869  0.032915
       Atomic Center    2 is at   4.877066 -2.585882 -0.075085
       Atomic Center    3 is at   5.181048 -1.223878 -0.326085
       Atomic Center    4 is at   4.034039 -0.455892 -0.366085
       Atomic Center    5 is at   2.859011  1.690093 -0.656085
       Atomic Center    6 is at   1.938985  3.718081 -1.034085
       Atomic Center    7 is at   0.648992  3.226065 -0.826085
       Atomic Center    8 is at   3.983021  0.906107 -0.600085
       Atomic Center    9 is at  -0.568019  4.083049 -1.021085
       Atomic Center   10 is at   0.594009  1.866064 -0.477085
       Atomic Center   11 is at  -0.563966 -0.099951  0.450915
       Atomic Center   12 is at  -1.954970  0.219031  1.045915
       Atomic Center   13 is at  -2.142966 -0.050971  2.549915
       Atomic Center   14 is at  -1.104975  0.595042  3.352915
       Atomic Center   15 is at  -4.354969  0.146001  0.430915
       Atomic Center   16 is at  -5.205964 -0.222010 -0.772085
       Atomic Center   17 is at   3.057995  2.985095 -0.953085
       Atomic Center   18 is at  -6.060940 -2.140021 -2.115085
       Atomic Center   19 is at  -3.846938 -2.297993 -0.980085
       Atomic Center   20 is at  -3.062944 -1.833983  0.233915
       Atomic Center   21 is at  -1.685989  1.685035  0.618915
       Atomic Center   22 is at  -0.604982  1.190049 -0.258085
       Atomic Center   23 is at  -0.257982  1.147053  3.963915
       Atomic Center   24 is at  -3.014962 -0.378982  0.220915
       Atomic Center   25 is at  -5.241945 -1.722010 -0.933085
       Atomic Center   26 is at   1.686019  1.091078 -0.403085
       Atomic Center   27 is at   2.669052 -1.488910 -0.086085
       Atomic Center   28 is at   3.584070 -2.880898  0.072915
       Atomic Center   29 is at   6.182043 -0.828865 -0.468085
       Atomic Center   30 is at   2.080972  4.766083 -1.296085
       Atomic Center   31 is at   4.855015  1.394118 -0.785085
       Atomic Center   32 is at   0.225035 -0.140941  1.211915
       Atomic Center   33 is at  -0.462955 -0.969950 -0.205085
       Atomic Center   34 is at  -3.119971  0.315017  2.888915
       Atomic Center   35 is at  -2.112953 -1.129971  2.746915
       Atomic Center   36 is at  -4.327983  1.237001  0.498915
       Atomic Center   37 is at  -4.837964 -0.227005  1.354915
       Atomic Center   38 is at  -6.240969  0.116977 -0.672085
       Atomic Center   39 is at  -4.768969  0.179996 -1.689085
       Atomic Center   40 is at  -3.946924 -3.385994 -1.022085
       Atomic Center   41 is at  -3.385943 -1.930987 -1.899085
       Atomic Center   42 is at  -2.053939 -2.245970  0.155915
       Atomic Center   43 is at  -3.517938 -2.250989  1.152915
       Atomic Center   44 is at  -2.490995  2.213025  0.098915
       Atomic Center   45 is at  -1.324996  2.298039  1.454915
       Atomic Center   46 is at  -5.693940 -2.103016 -0.089085
       Atomic Center   47 is at  -7.067945 -1.737034 -2.006085
       Atomic Center   48 is at  -5.588945 -1.742015 -3.013085
       Atomic Center   49 is at  -6.090926 -3.229021 -2.155085
       Atomic Center   50 is at  -0.286031  5.029053 -1.490085
       Atomic Center   51 is at  -1.291013  3.585040 -1.677085
       Atomic Center   52 is at  -1.071022  4.322043 -0.078085
       Atomic Center   53 is at   6.474081 -3.771861 -0.891085
       Atomic Center   54 is at   6.594077 -3.488860  0.850915
       Atomic Center   55 is at   5.386092 -4.629875  0.221915
      ESP Fit Center   56 is at   4.843080 -3.681869  1.851569
      ESP Fit Center   57 is at   6.648576 -5.336174  1.082915
      ESP Fit Center   58 is at   7.086016 -5.410135  0.032915
      ESP Fit Center   59 is at   7.752537 -4.657787  0.032915
      ESP Fit Center   60 is at   4.877066 -2.585882  2.024915
      ESP Fit Center   61 is at   5.402066 -1.676555  1.743569
      ESP Fit Center   62 is at   4.352066 -1.676555  1.743569
      ESP Fit Center   63 is at   4.352066 -3.495208 -1.893738
      ESP Fit Center   64 is at   4.877066 -2.585882 -2.175085
      ESP Fit Center   65 is at   5.181048 -1.223878  1.773915
      ESP Fit Center   66 is at   6.231048 -1.223878  1.492569
      ESP Fit Center   67 is at   5.706048 -0.314551  1.492569
      ESP Fit Center   68 is at   5.936544  0.430428  0.723915
      ESP Fit Center   69 is at   6.231048 -1.223878 -2.144738
      ESP Fit Center   70 is at   5.706048 -0.314551 -2.144738
      ESP Fit Center   71 is at   4.656048 -2.133204 -2.144738
      ESP Fit Center   72 is at   5.706048 -2.133204 -2.144738
      ESP Fit Center   73 is at   5.181048 -1.223878 -2.426085
      ESP Fit Center   74 is at   4.034039 -0.455892  1.733915
      ESP Fit Center   75 is at   4.559039  0.453434  1.452569
      ESP Fit Center   76 is at   3.509039  0.453434  1.452569
      ESP Fit Center   77 is at   4.034039 -0.455892 -2.466085
      ESP Fit Center   78 is at   2.859011  1.690093  1.443915
      ESP Fit Center   79 is at   3.384011  2.599419  1.162569
      ESP Fit Center   80 is at   2.334011  2.599419  1.162569
      ESP Fit Center   81 is at   1.809011  1.690093 -2.474738
      ESP Fit Center   82 is at   2.334011  0.780766 -2.474738
      ESP Fit Center   83 is at   2.859011  1.690093 -2.756085
      ESP Fit Center   84 is at   1.938985  3.718081  1.065915
      ESP Fit Center   85 is at   2.463985  4.627408  0.784569
      ESP Fit Center   86 is at   1.413985  4.627408  0.784569
      ESP Fit Center   87 is at   1.413985  4.627408 -2.852738
      ESP Fit Center   88 is at   1.413985  2.808754 -2.852738
      ESP Fit Center   89 is at   1.938985  3.718081 -3.134085
      ESP Fit Center   90 is at   0.648992  3.226065  1.273915
      ESP Fit Center   91 is at   1.173992  4.135391  0.992569
      ESP Fit Center   92 is at   0.123992  2.316738 -2.644738
      ESP Fit Center   93 is at   1.173992  2.316738 -2.644738
      ESP Fit Center   94 is at   0.648992  3.226065 -2.926085
      ESP Fit Center   95 is at   3.983021  0.906107  1.499915
      ESP Fit Center   96 is at   5.033021  0.906107  1.218569
      ESP Fit Center   97 is at   4.508021  1.815434  1.218569
      ESP Fit Center   98 is at   4.738517  2.560412  0.449915
      ESP Fit Center   99 is at   5.033021  0.906107 -2.418738
      ESP Fit Center  100 is at   4.508021  1.815434 -2.418738
      ESP Fit Center  101 is at   3.458021 -0.003220 -2.418738
      ESP Fit Center  102 is at   4.508021 -0.003220 -2.418738
      ESP Fit Center  103 is at   3.983021  0.906107 -2.700085
      ESP Fit Center  104 is at   0.187477  5.737354  0.028915
      ESP Fit Center  105 is at  -2.139892  5.475607 -1.021085
      ESP Fit Center  106 is at  -2.606997  4.585612 -1.021085
      ESP Fit Center  107 is at   0.481981  4.083049 -2.839738
      ESP Fit Center  108 is at  -0.043019  3.173722 -2.839738
      ESP Fit Center  109 is at  -0.568019  4.083049 -3.121085
      ESP Fit Center  110 is at   0.594009  1.866064  1.622915
      ESP Fit Center  111 is at   1.119009  2.775391  1.341569
      ESP Fit Center  112 is at  -0.455991  1.866064 -2.295738
      ESP Fit Center  113 is at   0.069009  0.956737 -2.295738
      ESP Fit Center  114 is at   0.594009  1.866064 -2.577085
      ESP Fit Center  115 is at  -0.822787 -1.900093  1.500915
      ESP Fit Center  116 is at  -2.667966 -0.960298  4.368569
      ESP Fit Center  117 is at  -2.154975  0.595042  5.171569
      ESP Fit Center  118 is at  -1.629975 -0.314284  5.171569
      ESP Fit Center  119 is at  -2.295939  1.969489  4.402915
      ESP Fit Center  120 is at  -2.849960  1.107416  4.402915
      ESP Fit Center  121 is at  -1.363796 -1.205100  4.402915
      ESP Fit Center  122 is at  -0.349479 -1.059263  4.402915
      ESP Fit Center  123 is at  -1.849645  2.558576  3.352915
      ESP Fit Center  124 is at  -2.676847  1.987600  3.352915
      ESP Fit Center  125 is at   0.087961 -1.133224  3.352915
      ESP Fit Center  126 is at   3.057995  2.985095  1.146915
      ESP Fit Center  127 is at   4.107995  2.985095  0.865569
      ESP Fit Center  128 is at   3.582995  3.894422  0.865569
      ESP Fit Center  129 is at   4.876648  2.985095  0.096915
      ESP Fit Center  130 is at   4.587943  3.968334  0.096915
      ESP Fit Center  131 is at   3.813491  4.639401  0.096915
      ESP Fit Center  132 is at   4.917452  3.961014 -0.953085
      ESP Fit Center  133 is at   4.250931  4.713361 -0.953085
      ESP Fit Center  134 is at   4.876648  2.985095 -2.003085
      ESP Fit Center  135 is at   4.587943  3.968334 -2.003085
      ESP Fit Center  136 is at   3.813491  4.639401 -2.003085
      ESP Fit Center  137 is at   4.107995  2.985095 -2.771738
      ESP Fit Center  138 is at   3.582995  3.894422 -2.771738
      ESP Fit Center  139 is at   2.532995  2.075769 -2.771738
      ESP Fit Center  140 is at   3.582995  2.075769 -2.771738
      ESP Fit Center  141 is at   3.057995  2.985095 -3.053085
      ESP Fit Center  142 is at  -4.530991 -3.123259 -3.165085
      ESP Fit Center  143 is at  -7.110940 -2.140021 -3.933738
      ESP Fit Center  144 is at  -6.585940 -3.049348 -3.933738
      ESP Fit Center  145 is at  -2.316989 -3.281231 -2.030085
      ESP Fit Center  146 is at  -4.371938 -3.207319 -2.798738
      ESP Fit Center  147 is at  -2.307448 -3.488288  1.283915
      ESP Fit Center  148 is at  -2.809817 -3.918671  0.233915
      ESP Fit Center  149 is at  -2.876953  3.059481  1.668915
      ESP Fit Center  150 is at  -3.430974  2.197409  1.668915
      ESP Fit Center  151 is at  -1.654982  1.190049 -2.076738
      ESP Fit Center  152 is at  -1.129982  0.280722 -2.076738
      ESP Fit Center  153 is at  -0.079982  0.280722 -2.076738
      ESP Fit Center  154 is at  -0.604982  1.190049 -2.358085
      ESP Fit Center  155 is at  -0.257982  1.147053  6.063915
      ESP Fit Center  156 is at   0.792018  1.147053  5.782569
      ESP Fit Center  157 is at   0.267018  2.056380  5.782569
      ESP Fit Center  158 is at  -0.782982  2.056380  5.782569
      ESP Fit Center  159 is at  -1.307982  1.147053  5.782569
      ESP Fit Center  160 is at  -0.782982  0.237726  5.782569
      ESP Fit Center  161 is at   0.267018  0.237726  5.782569
      ESP Fit Center  162 is at   1.560672  1.147053  5.013915
      ESP Fit Center  163 is at   1.271967  2.130291  5.013915
      ESP Fit Center  164 is at   0.497514  2.801358  5.013915
      ESP Fit Center  165 is at  -0.516803  2.947195  5.013915
      ESP Fit Center  166 is at  -1.448946  2.521500  5.013915
      ESP Fit Center  167 is at  -2.002967  1.659427  5.013915
      ESP Fit Center  168 is at  -0.516803 -0.653089  5.013915
      ESP Fit Center  169 is at   0.497514 -0.507252  5.013915
      ESP Fit Center  170 is at   1.271967  0.163815  5.013915
      ESP Fit Center  171 is at   1.842018  1.147053  3.963915
      ESP Fit Center  172 is at   1.601476  2.122972  3.963915
      ESP Fit Center  173 is at   0.934954  2.875319  3.963915
      ESP Fit Center  174 is at  -0.004855  3.231742  3.963915
      ESP Fit Center  175 is at  -1.002652  3.110587  3.963915
      ESP Fit Center  176 is at  -1.829854  2.539611  3.963915
      ESP Fit Center  177 is at   0.934954 -0.581213  3.963915
      ESP Fit Center  178 is at   1.601476  0.171134  3.963915
      ESP Fit Center  179 is at   1.560672  1.147053  2.913915
      ESP Fit Center  180 is at   1.271967  2.130291  2.913915
      ESP Fit Center  181 is at   0.497514  2.801358  2.913915
      ESP Fit Center  182 is at  -0.516803  2.947195  2.913915
      ESP Fit Center  183 is at   1.271967  0.163815  2.913915
      ESP Fit Center  184 is at   0.792018  1.147053  2.145262
      ESP Fit Center  185 is at   0.267018  2.056380  2.145262
      ESP Fit Center  186 is at  -1.964962 -0.378982 -1.597738
      ESP Fit Center  187 is at  -2.489962  0.530345 -1.597738
      ESP Fit Center  188 is at   1.686019  1.091078  1.696915
      ESP Fit Center  189 is at   2.736019  1.091078  1.415569
      ESP Fit Center  190 is at   2.211019  2.000405  1.415569
      ESP Fit Center  191 is at   0.495054 -0.283369 -1.453085
      ESP Fit Center  192 is at   1.161019  0.181751 -2.221738
      ESP Fit Center  193 is at   2.211019  0.181751 -2.221738
      ESP Fit Center  194 is at   1.686019  1.091078 -2.503085
      ESP Fit Center  195 is at   2.669052 -1.488910  2.363915
      ESP Fit Center  196 is at   3.732067 -1.488910  2.121289
      ESP Fit Center  197 is at   3.200559 -0.568312  2.121289
      ESP Fit Center  198 is at   2.137544 -0.568312  2.121289
      ESP Fit Center  199 is at   1.606037 -1.488910  2.121289
      ESP Fit Center  200 is at   2.137544 -2.409508  2.121289
      ESP Fit Center  201 is at   3.200559 -2.409508  2.121289
      ESP Fit Center  202 is at   0.831155 -2.028565  1.441466
      ESP Fit Center  203 is at   1.414675 -2.936538  1.441466
      ESP Fit Center  204 is at   0.517022 -2.525273  0.459092
      ESP Fit Center  205 is at   1.179801 -3.356372  0.459092
      ESP Fit Center  206 is at   0.517022 -2.525273 -0.631261
      ESP Fit Center  207 is at   1.179801 -3.356372 -0.631261
      ESP Fit Center  208 is at   0.831155 -0.949255 -1.613635
      ESP Fit Center  209 is at   0.831155 -2.028565 -1.613635
      ESP Fit Center  210 is at   1.414675 -2.936538 -1.613635
      ESP Fit Center  211 is at   2.396450 -3.384900 -1.613635
      ESP Fit Center  212 is at   3.732067 -1.488910 -2.293458
      ESP Fit Center  213 is at   3.200559 -0.568312 -2.293458
      ESP Fit Center  214 is at   2.137544 -0.568312 -2.293458
      ESP Fit Center  215 is at   1.606037 -1.488910 -2.293458
      ESP Fit Center  216 is at   2.137544 -2.409508 -2.293458
      ESP Fit Center  217 is at   3.200559 -2.409508 -2.293458
      ESP Fit Center  218 is at   2.669052 -1.488910 -2.536085
      ESP Fit Center  219 is at   3.584070 -2.880898  2.172915
      ESP Fit Center  220 is at   4.109070 -1.971571  1.891569
      ESP Fit Center  221 is at   3.059070 -3.790225  1.891569
      ESP Fit Center  222 is at   4.109070 -3.790225  1.891569
      ESP Fit Center  223 is at   2.393105 -4.255344  1.122915
      ESP Fit Center  224 is at   3.325248 -4.681040  1.122915
      ESP Fit Center  225 is at   2.012197 -4.273456  0.072915
      ESP Fit Center  226 is at   2.839399 -4.844432  0.072915
      ESP Fit Center  227 is at   2.393105 -4.255344 -0.977085
      ESP Fit Center  228 is at   3.325248 -4.681040 -0.977085
      ESP Fit Center  229 is at   3.059070 -3.790225 -1.745738
      ESP Fit Center  230 is at   4.109070 -3.790225 -1.745738
      ESP Fit Center  231 is at   3.584070 -2.880898 -2.027085
      ESP Fit Center  232 is at   7.169523 -0.828865  0.891064
      ESP Fit Center  233 is at   6.487191  0.110284  0.891064
      ESP Fit Center  234 is at   7.779818 -0.828865  0.051064
      ESP Fit Center  235 is at   7.406010  0.198165  0.051064
      ESP Fit Center  236 is at   6.459494  0.744636  0.051064
      ESP Fit Center  237 is at   7.406010 -1.855895  0.051064
      ESP Fit Center  238 is at   7.779818 -0.828865 -0.987233
      ESP Fit Center  239 is at   7.406010  0.198165 -0.987233
      ESP Fit Center  240 is at   6.459494  0.744636 -0.987233
      ESP Fit Center  241 is at   7.406010 -1.855895 -0.987233
      ESP Fit Center  242 is at   7.169523 -0.828865 -1.827233
      ESP Fit Center  243 is at   6.487191  0.110284 -1.827233
      ESP Fit Center  244 is at   6.182043 -0.828865 -2.148085
      ESP Fit Center  245 is at   2.386120  5.705231  0.063064
      ESP Fit Center  246 is at   3.304939  5.793113 -0.776936
      ESP Fit Center  247 is at   2.358423  6.339584 -0.776936
      ESP Fit Center  248 is at   1.282085  6.149797 -0.776936
      ESP Fit Center  249 is at   3.304939  5.793113 -1.815233
      ESP Fit Center  250 is at   2.358423  6.339584 -1.815233
      ESP Fit Center  251 is at   1.282085  6.149797 -1.815233
      ESP Fit Center  252 is at   3.068451  4.766083 -2.655233
      ESP Fit Center  253 is at   2.386120  5.705231 -2.655233
      ESP Fit Center  254 is at   1.282085  5.346509 -2.655233
      ESP Fit Center  255 is at   2.080972  4.766083 -2.976085
      ESP Fit Center  256 is at   5.842494  1.394118  0.574064
      ESP Fit Center  257 is at   5.160163  2.333267  0.574064
      ESP Fit Center  258 is at   6.452790  1.394118 -0.265936
      ESP Fit Center  259 is at   6.078982  2.421148 -0.265936
      ESP Fit Center  260 is at   5.132466  2.967619 -0.265936
      ESP Fit Center  261 is at   6.452790  1.394118 -1.304233
      ESP Fit Center  262 is at   6.078982  2.421148 -1.304233
      ESP Fit Center  263 is at   5.132466  2.967619 -1.304233
      ESP Fit Center  264 is at   5.842494  1.394118 -2.144233
      ESP Fit Center  265 is at   5.160163  2.333267 -2.144233
      ESP Fit Center  266 is at   4.855015  1.394118 -2.465085
      ESP Fit Center  267 is at   1.212514 -0.140941  2.571064
      ESP Fit Center  268 is at   0.530183 -1.080089  2.571064
      ESP Fit Center  269 is at   1.449001  0.886089  1.731064
      ESP Fit Center  270 is at   0.502485  1.432560  1.731064
      ESP Fit Center  271 is at   0.502485 -1.714442  1.731064
      ESP Fit Center  272 is at  -0.185504 -2.543451  0.314064
      ESP Fit Center  273 is at  -0.185504 -2.543451 -0.724233
      ESP Fit Center  274 is at   0.524524 -0.969950 -1.564233
      ESP Fit Center  275 is at  -1.261842 -0.389524 -1.564233
      ESP Fit Center  276 is at  -1.261842 -1.550375 -1.564233
      ESP Fit Center  277 is at  -0.157807 -1.909098 -1.564233
      ESP Fit Center  278 is at  -0.462955 -0.969950 -1.885085
      ESP Fit Center  279 is at  -3.119971  0.315017  4.568915
      ESP Fit Center  280 is at  -3.918859  0.895442  4.248064
      ESP Fit Center  281 is at  -3.918859 -0.265409  4.248064
      ESP Fit Center  282 is at  -2.842520  1.888518  3.408064
      ESP Fit Center  283 is at  -3.918859  1.698730  3.408064
      ESP Fit Center  284 is at  -4.621388  0.861488  3.408064
      ESP Fit Center  285 is at  -4.621388 -0.231455  3.408064
      ESP Fit Center  286 is at  -3.918859 -1.068697  3.408064
      ESP Fit Center  287 is at  -3.918859  1.698730  2.369767
      ESP Fit Center  288 is at  -2.112953 -1.129971  4.426915
      ESP Fit Center  289 is at  -2.911840 -1.710396  4.106064
      ESP Fit Center  290 is at  -1.807805 -2.069119  4.106064
      ESP Fit Center  291 is at  -3.614370 -1.676442  3.266064
      ESP Fit Center  292 is at  -2.911840 -2.513684  3.266064
      ESP Fit Center  293 is at  -1.835502 -2.703472  3.266064
      ESP Fit Center  294 is at  -0.888986 -2.157001  3.266064
      ESP Fit Center  295 is at  -1.835502 -2.703472  2.227767
      ESP Fit Center  296 is at  -0.888986 -2.157001  2.227767
      ESP Fit Center  297 is at  -4.022835  2.176150  1.858064
      ESP Fit Center  298 is at  -5.126870  1.817427  1.858064
      ESP Fit Center  299 is at  -4.050532  2.810502  1.018064
      ESP Fit Center  300 is at  -5.126870  2.620715  1.018064
      ESP Fit Center  301 is at  -5.829400  1.783472  1.018064
      ESP Fit Center  302 is at  -5.126870  2.620715 -0.020233
      ESP Fit Center  303 is at  -5.829400  1.783472 -0.020233
      ESP Fit Center  304 is at  -4.022835  2.176150 -0.860233
      ESP Fit Center  305 is at  -4.837964 -0.227005  3.034915
      ESP Fit Center  306 is at  -5.636852  0.353420  2.714064
      ESP Fit Center  307 is at  -5.636852 -0.807431  2.714064
      ESP Fit Center  308 is at  -4.532816 -1.166154  2.714064
      ESP Fit Center  309 is at  -5.636852  1.156708  1.874064
      ESP Fit Center  310 is at  -6.339382  0.319466  1.874064
      ESP Fit Center  311 is at  -6.339382 -0.773477  1.874064
      ESP Fit Center  312 is at  -5.636852 -1.610719  1.874064
      ESP Fit Center  313 is at  -7.039856  0.697403  0.687064
      ESP Fit Center  314 is at  -7.039856 -0.463449  0.687064
      ESP Fit Center  315 is at  -5.963518  1.690478 -0.152936
      ESP Fit Center  316 is at  -7.039856  1.500690 -0.152936
      ESP Fit Center  317 is at  -7.742386  0.663448 -0.152936
      ESP Fit Center  318 is at  -7.742386 -0.429494 -0.152936
      ESP Fit Center  319 is at  -7.039856  1.500690 -1.191233
      ESP Fit Center  320 is at  -7.742386  0.663448 -1.191233
      ESP Fit Center  321 is at  -7.742386 -0.429494 -1.191233
      ESP Fit Center  322 is at  -7.039856  0.697403 -2.031233
      ESP Fit Center  323 is at  -4.491519  1.753497 -1.169936
      ESP Fit Center  324 is at  -3.171194  0.179996 -2.208233
      ESP Fit Center  325 is at  -3.545003  1.207025 -2.208233
      ESP Fit Center  326 is at  -4.491519  1.753497 -2.208233
      ESP Fit Center  327 is at  -5.567857  1.563709 -2.208233
      ESP Fit Center  328 is at  -3.781490  0.179996 -3.048233
      ESP Fit Center  329 is at  -4.463822  1.119144 -3.048233
      ESP Fit Center  330 is at  -5.567857  0.760421 -3.048233
      ESP Fit Center  331 is at  -4.768969  0.179996 -3.369085
      ESP Fit Center  332 is at  -4.745811 -3.966420  0.337064
      ESP Fit Center  333 is at  -3.641776 -4.325143  0.337064
      ESP Fit Center  334 is at  -5.448341 -3.932465 -0.502936
      ESP Fit Center  335 is at  -4.745811 -4.769708 -0.502936
      ESP Fit Center  336 is at  -3.669473 -4.959495 -0.502936
      ESP Fit Center  337 is at  -2.722957 -4.413024 -0.502936
      ESP Fit Center  338 is at  -4.745811 -4.769708 -1.541233
      ESP Fit Center  339 is at  -3.669473 -4.959495 -1.541233
      ESP Fit Center  340 is at  -2.722957 -4.413024 -1.541233
      ESP Fit Center  341 is at  -3.641776 -4.325143 -2.381233
      ESP Fit Center  342 is at  -1.788168 -1.930987 -2.418233
      ESP Fit Center  343 is at  -2.161976 -0.903957 -2.418233
      ESP Fit Center  344 is at  -3.108492 -0.357486 -2.418233
      ESP Fit Center  345 is at  -2.161976 -2.958017 -2.418233
      ESP Fit Center  346 is at  -2.398463 -1.930987 -3.258233
      ESP Fit Center  347 is at  -3.080795 -0.991838 -3.258233
      ESP Fit Center  348 is at  -3.080795 -2.870135 -3.258233
      ESP Fit Center  349 is at  -3.385943 -1.930987 -3.579085
      ESP Fit Center  350 is at  -1.066459 -2.245970  1.515064
      ESP Fit Center  351 is at  -1.748791 -3.185118  1.515064
      ESP Fit Center  352 is at  -1.776488 -3.819471  0.675064
      ESP Fit Center  353 is at  -0.829972 -3.273000  0.675064
      ESP Fit Center  354 is at  -1.776488 -3.819471 -0.363233
      ESP Fit Center  355 is at  -0.829972 -3.273000 -0.363233
      ESP Fit Center  356 is at  -1.066459 -2.245970 -1.203233
      ESP Fit Center  357 is at  -1.748791 -3.185118 -1.203233
      ESP Fit Center  358 is at  -3.517938 -2.250989  2.832915
      ESP Fit Center  359 is at  -4.316826 -1.670563  2.512064
      ESP Fit Center  360 is at  -4.316826 -2.831414  2.512064
      ESP Fit Center  361 is at  -3.212791 -3.190137  2.512064
      ESP Fit Center  362 is at  -5.019356 -2.797460  1.672064
      ESP Fit Center  363 is at  -4.316826 -3.634702  1.672064
      ESP Fit Center  364 is at  -3.240488 -3.824490  1.672064
      ESP Fit Center  365 is at  -2.293972 -3.278018  1.672064
      ESP Fit Center  366 is at  -4.316826 -3.634702  0.633767
      ESP Fit Center  367 is at  -3.289883  2.793450  1.458064
      ESP Fit Center  368 is at  -3.289883  3.596738  0.618064
      ESP Fit Center  369 is at  -3.289883  3.596738 -0.420233
      ESP Fit Center  370 is at  -3.992413  2.759496 -0.420233
      ESP Fit Center  371 is at  -3.289883  2.793450 -1.260233
      ESP Fit Center  372 is at  -3.289883  1.632599 -1.260233
      ESP Fit Center  373 is at  -2.490995  2.213025 -1.581085
      ESP Fit Center  374 is at  -1.019849  3.237188  2.814064
      ESP Fit Center  375 is at  -2.123884  2.878465  2.814064
      ESP Fit Center  376 is at   0.272779  2.298039  1.974064
      ESP Fit Center  377 is at  -0.101030  3.325069  1.974064
      ESP Fit Center  378 is at  -1.047546  3.871541  1.974064
      ESP Fit Center  379 is at  -2.123884  3.681753  1.974064
      ESP Fit Center  380 is at  -2.826414  2.844511  1.974064
      ESP Fit Center  381 is at  -5.693940 -2.103016  1.590915
      ESP Fit Center  382 is at  -6.492828 -1.522591  1.270064
      ESP Fit Center  383 is at  -6.492828 -2.683442  1.270064
      ESP Fit Center  384 is at  -5.388792 -3.042165  1.270064
      ESP Fit Center  385 is at  -7.195358 -1.556545  0.430064
      ESP Fit Center  386 is at  -7.195358 -2.649487  0.430064
      ESP Fit Center  387 is at  -6.492828 -3.486730  0.430064
      ESP Fit Center  388 is at  -5.416490 -3.676517  0.430064
      ESP Fit Center  389 is at  -7.866832 -1.156608 -0.646936
      ESP Fit Center  390 is at  -7.866832 -2.317459 -0.646936
      ESP Fit Center  391 is at  -7.866832 -0.353320 -1.486936
      ESP Fit Center  392 is at  -8.569362 -1.190563 -1.486936
      ESP Fit Center  393 is at  -8.569362 -2.283505 -1.486936
      ESP Fit Center  394 is at  -7.866832 -3.120747 -1.486936
      ESP Fit Center  395 is at  -6.790494 -0.163533 -2.525233
      ESP Fit Center  396 is at  -7.866832 -0.353320 -2.525233
      ESP Fit Center  397 is at  -8.569362 -1.190563 -2.525233
      ESP Fit Center  398 is at  -8.569362 -2.283505 -2.525233
      ESP Fit Center  399 is at  -7.866832 -1.156608 -3.365233
      ESP Fit Center  400 is at  -7.866832 -2.317459 -3.365233
      ESP Fit Center  401 is at  -3.991170 -1.742015 -3.532233
      ESP Fit Center  402 is at  -4.364978 -0.714985 -3.532233
      ESP Fit Center  403 is at  -5.311494 -0.168514 -3.532233
      ESP Fit Center  404 is at  -6.387832 -0.358301 -3.532233
      ESP Fit Center  405 is at  -4.364978 -2.769045 -3.532233
      ESP Fit Center  406 is at  -4.601466 -1.742015 -4.372233
      ESP Fit Center  407 is at  -5.283797 -0.802866 -4.372233
      ESP Fit Center  408 is at  -6.387832 -1.161589 -4.372233
      ESP Fit Center  409 is at  -6.387832 -2.322441 -4.372233
      ESP Fit Center  410 is at  -5.283797 -2.681163 -4.372233
      ESP Fit Center  411 is at  -5.588945 -1.742015 -4.693085
      ESP Fit Center  412 is at  -6.889813 -3.809447 -0.795936
      ESP Fit Center  413 is at  -5.785778 -4.168170 -0.795936
      ESP Fit Center  414 is at  -7.592343 -3.775493 -1.635936
      ESP Fit Center  415 is at  -6.889813 -4.612735 -1.635936
      ESP Fit Center  416 is at  -5.813475 -4.802522 -1.635936
      ESP Fit Center  417 is at  -7.592343 -3.775493 -2.674233
      ESP Fit Center  418 is at  -6.889813 -4.612735 -2.674233
      ESP Fit Center  419 is at  -5.813475 -4.802522 -2.674233
      ESP Fit Center  420 is at  -4.866959 -4.256051 -2.674233
      ESP Fit Center  421 is at  -6.889813 -3.809447 -3.514233
      ESP Fit Center  422 is at  -5.785778 -4.168170 -3.514233
      ESP Fit Center  423 is at   0.019117  5.968201 -0.130936
      ESP Fit Center  424 is at   0.937935  6.056083 -0.970936
      ESP Fit Center  425 is at  -0.008581  6.602554 -0.970936
      ESP Fit Center  426 is at  -1.084919  6.412766 -0.970936
      ESP Fit Center  427 is at   0.937935  6.056083 -2.009233
      ESP Fit Center  428 is at  -0.008581  6.602554 -2.009233
      ESP Fit Center  429 is at  -1.084919  6.412766 -2.009233
      ESP Fit Center  430 is at  -1.787449  5.575524 -2.009233
      ESP Fit Center  431 is at   0.701448  5.029053 -2.849233
      ESP Fit Center  432 is at   0.019117  5.968201 -2.849233
      ESP Fit Center  433 is at  -1.084919  5.609478 -2.849233
      ESP Fit Center  434 is at  -0.286031  5.029053 -3.170085
      ESP Fit Center  435 is at  -2.792430  4.131511 -1.157936
      ESP Fit Center  436 is at  -2.089900  4.968754 -2.196233
      ESP Fit Center  437 is at  -2.792430  4.131511 -2.196233
      ESP Fit Center  438 is at  -2.792430  3.038569 -2.196233
      ESP Fit Center  439 is at  -2.089900  2.201326 -2.196233
      ESP Fit Center  440 is at  -1.013562  2.011539 -2.196233
      ESP Fit Center  441 is at  -0.985865  4.524188 -3.036233
      ESP Fit Center  442 is at  -2.089900  4.165466 -3.036233
      ESP Fit Center  443 is at  -2.089900  3.004614 -3.036233
      ESP Fit Center  444 is at  -0.985865  2.645891 -3.036233
      ESP Fit Center  445 is at  -1.291013  3.585040 -3.357085
      ESP Fit Center  446 is at  -1.071022  4.322043  1.601915
      ESP Fit Center  447 is at  -0.083543  4.322043  1.281064
      ESP Fit Center  448 is at  -0.765874  5.261191  1.281064
      ESP Fit Center  449 is at  -1.869910  4.902468  1.281064
      ESP Fit Center  450 is at  -0.793572  5.895544  0.441064
      ESP Fit Center  451 is at  -1.869910  5.705756  0.441064
      ESP Fit Center  452 is at  -2.572440  4.868514  0.441064
      ESP Fit Center  453 is at  -1.869910  5.705756 -0.597233
      ESP Fit Center  454 is at  -2.572440  4.868514 -0.597233
      ESP Fit Center  455 is at   8.071856 -3.771861 -0.371936
      ESP Fit Center  456 is at   7.698048 -4.798891 -0.371936
      ESP Fit Center  457 is at   8.071856 -3.771861 -1.410233
      ESP Fit Center  458 is at   7.698048 -2.744831 -1.410233
      ESP Fit Center  459 is at   6.751532 -2.198360 -1.410233
      ESP Fit Center  460 is at   6.751532 -5.345362 -1.410233
      ESP Fit Center  461 is at   7.698048 -4.798891 -1.410233
      ESP Fit Center  462 is at   7.461560 -3.771861 -2.250233
      ESP Fit Center  463 is at   6.779229 -2.832713 -2.250233
      ESP Fit Center  464 is at   5.675193 -3.191435 -2.250233
      ESP Fit Center  465 is at   5.675193 -4.352287 -2.250233
      ESP Fit Center  466 is at   6.779229 -4.711010 -2.250233
      ESP Fit Center  467 is at   6.474081 -3.771861 -2.571085
      ESP Fit Center  468 is at   6.594077 -3.488860  2.530915
      ESP Fit Center  469 is at   7.581557 -3.488860  2.210064
      ESP Fit Center  470 is at   6.899225 -2.549711  2.210064
      ESP Fit Center  471 is at   5.795190 -2.908434  2.210064
      ESP Fit Center  472 is at   5.795190 -4.069285  2.210064
      ESP Fit Center  473 is at   6.899225 -4.428008  2.210064
      ESP Fit Center  474 is at   8.191852 -3.488860  1.370064
      ESP Fit Center  475 is at   7.818044 -2.461830  1.370064
      ESP Fit Center  476 is at   6.871528 -1.915358  1.370064
      ESP Fit Center  477 is at   6.871528 -5.062361  1.370064
      ESP Fit Center  478 is at   7.818044 -4.515890  1.370064
      ESP Fit Center  479 is at   8.191852 -3.488860  0.331767
      ESP Fit Center  480 is at   7.818044 -2.461830  0.331767
      ESP Fit Center  481 is at   7.818044 -4.515890  0.331767
      ESP Fit Center  482 is at   5.386092 -4.629875  1.901915
      ESP Fit Center  483 is at   4.587204 -5.210301  1.581064
      ESP Fit Center  484 is at   5.691240 -5.569024  1.581064
      ESP Fit Center  485 is at   3.884675 -5.176346  0.741064
      ESP Fit Center  486 is at   4.587204 -6.013589  0.741064
      ESP Fit Center  487 is at   5.663543 -6.203376  0.741064
      ESP Fit Center  488 is at   6.610058 -5.656905  0.741064
      ESP Fit Center  489 is at   3.884675 -5.176346 -0.297233
      ESP Fit Center  490 is at   4.587204 -6.013589 -0.297233
      ESP Fit Center  491 is at   5.663543 -6.203376 -0.297233
      ESP Fit Center  492 is at   6.610058 -5.656905 -0.297233
      ESP Fit Center  493 is at   4.587204 -5.210301 -1.137233
      ESP Fit Center  494 is at   5.691240 -5.569024 -1.137233
      ESP Fit Center  495 is at   4.851759 -3.681869  2.195241
      ESP Fit Center  496 is at   5.372419 -4.583679  2.195241
      ESP Fit Center  497 is at   6.672563 -5.388698  1.529291
      ESP Fit Center  498 is at   7.351938 -5.511219  0.566966
      ESP Fit Center  499 is at   8.001191 -2.666656 -0.501135
      ESP Fit Center  500 is at   7.351938 -5.511219 -0.501135
      ESP Fit Center  501 is at   5.626041 -5.539165 -1.463460
      ESP Fit Center  502 is at   4.877066 -2.585882  2.324915
      ESP Fit Center  503 is at   5.397726 -1.684071  2.087241
      ESP Fit Center  504 is at   4.356405 -3.487692 -2.237410
      ESP Fit Center  505 is at   4.877066 -2.585882 -2.475085
      ESP Fit Center  506 is at   5.181048 -1.223878  2.073915
      ESP Fit Center  507 is at   6.222369 -1.223878  1.836241
      ESP Fit Center  508 is at   5.701709 -0.322067  1.836241
      ESP Fit Center  509 is at   5.960531  0.482952  1.170291
      ESP Fit Center  510 is at   6.222369 -1.223878 -2.488410
      ESP Fit Center  511 is at   5.701709 -0.322067 -2.488410
      ESP Fit Center  512 is at   4.660388 -2.125688 -2.488410
      ESP Fit Center  513 is at   5.701709 -2.125688 -2.488410
      ESP Fit Center  514 is at   5.181048 -1.223878 -2.726085
      ESP Fit Center  515 is at   4.554699  0.445918  1.796241
      ESP Fit Center  516 is at   3.513378  0.445918  1.796241
      ESP Fit Center  517 is at   4.034039 -0.455892 -2.766085
      ESP Fit Center  518 is at   2.859011  1.690093  1.743915
      ESP Fit Center  519 is at   3.379672  2.591903  1.506241
      ESP Fit Center  520 is at   2.338351  2.591903  1.506241
      ESP Fit Center  521 is at   1.817690  1.690093 -2.818410
      ESP Fit Center  522 is at   2.338351  0.788282 -2.818410
      ESP Fit Center  523 is at   2.859011  1.690093 -3.056085
      ESP Fit Center  524 is at   1.938985  3.718081  1.365915
      ESP Fit Center  525 is at   2.459646  4.619891  1.128241
      ESP Fit Center  526 is at   1.418325  4.619891  1.128241
      ESP Fit Center  527 is at   2.718468  5.424910  0.462291
      ESP Fit Center  528 is at   1.671947  5.575378  0.462291
      ESP Fit Center  529 is at   2.459646  4.619891 -3.196410
      ESP Fit Center  530 is at   1.418325  4.619891 -3.196410
      ESP Fit Center  531 is at   0.897665  3.718081 -3.196410
      ESP Fit Center  532 is at   1.418325  2.816271 -3.196410
      ESP Fit Center  533 is at   1.938985  3.718081 -3.434085
      ESP Fit Center  534 is at   0.648992  3.226065  1.573915
      ESP Fit Center  535 is at   1.690313  3.226065  1.336241
      ESP Fit Center  536 is at   1.169652  4.127875  1.336241
      ESP Fit Center  537 is at   0.128331  2.324254 -2.988410
      ESP Fit Center  538 is at   1.169652  2.324254 -2.988410
      ESP Fit Center  539 is at   0.648992  3.226065 -3.226085
      ESP Fit Center  540 is at   3.983021  0.906107  1.799915
      ESP Fit Center  541 is at   5.024342  0.906107  1.562241
      ESP Fit Center  542 is at   4.503682  1.807918  1.562241
      ESP Fit Center  543 is at   5.859417  0.906107  0.896291
      ESP Fit Center  544 is at   4.762504  2.612937  0.896291
      ESP Fit Center  545 is at   5.024342  0.906107 -2.762410
      ESP Fit Center  546 is at   4.503682  1.807918 -2.762410
      ESP Fit Center  547 is at   3.462361  0.004297 -2.762410
      ESP Fit Center  548 is at   4.503682  0.004297 -2.762410
      ESP Fit Center  549 is at   3.983021  0.906107 -3.000085
      ESP Fit Center  550 is at   0.211464  5.789879  0.475291
      ESP Fit Center  551 is at  -2.026877  5.912400 -1.555135
      ESP Fit Center  552 is at  -2.676130  5.098262 -1.555135
      ESP Fit Center  553 is at   0.473302  4.083049 -3.183410
      ESP Fit Center  554 is at  -0.047359  3.181239 -3.183410
      ESP Fit Center  555 is at  -0.568019  4.083049 -3.421085
      ESP Fit Center  556 is at   1.114670  2.767874  1.685241
      ESP Fit Center  557 is at  -0.447312  1.866064 -2.639410
      ESP Fit Center  558 is at   0.073349  0.964253 -2.639410
      ESP Fit Center  559 is at   0.594009  1.866064 -2.877085
      ESP Fit Center  560 is at  -2.663627 -0.952781  4.712241
      ESP Fit Center  561 is at  -2.146296  0.595042  5.515241
      ESP Fit Center  562 is at  -1.625635 -0.306768  5.515241
      ESP Fit Center  563 is at  -2.333752  2.013127  4.849291
      ESP Fit Center  564 is at  -2.905363  1.123684  4.849291
      ESP Fit Center  565 is at  -2.905363  0.066401  4.849291
      ESP Fit Center  566 is at  -2.333752 -0.823043  4.849291
      ESP Fit Center  567 is at  -1.372014 -1.262254  4.849291
      ESP Fit Center  568 is at  -0.325492 -1.111787  4.849291
      ESP Fit Center  569 is at  -2.563833  2.424393  3.886966
      ESP Fit Center  570 is at  -0.584314 -1.686120  3.886966
      ESP Fit Center  571 is at   0.353884 -1.234308  3.886966
      ESP Fit Center  572 is at   0.353884 -1.234308  2.818865
      ESP Fit Center  573 is at  -5.583747  1.564086  1.927291
      ESP Fit Center  574 is at  -6.463080  1.161214  0.964966
      ESP Fit Center  575 is at  -5.726625  2.059153 -1.306135
      ESP Fit Center  576 is at  -6.434742  1.196075 -2.268460
      ESP Fit Center  577 is at   3.057995  2.985095  1.446915
      ESP Fit Center  578 is at   4.099316  2.985095  1.209241
      ESP Fit Center  579 is at   3.578655  3.886906  1.209241
      ESP Fit Center  580 is at   4.934390  2.985095  0.543291
      ESP Fit Center  581 is at   4.636519  3.999551  0.543291
      ESP Fit Center  582 is at   3.837478  4.691925  0.543291
      ESP Fit Center  583 is at   5.166106  4.000308 -0.419034
      ESP Fit Center  584 is at   4.516853  4.814446 -0.419034
      ESP Fit Center  585 is at   5.166106  4.000308 -1.487135
      ESP Fit Center  586 is at   4.516853  4.814446 -1.487135
      ESP Fit Center  587 is at   4.934390  2.985095 -2.449460
      ESP Fit Center  588 is at   4.636519  3.999551 -2.449460
      ESP Fit Center  589 is at   3.837478  4.691925 -2.449460
      ESP Fit Center  590 is at   4.099316  2.985095 -3.115410
      ESP Fit Center  591 is at   3.578655  3.886906 -3.115410
      ESP Fit Center  592 is at   2.537334  2.083285 -3.115410
      ESP Fit Center  593 is at   3.578655  2.083285 -3.115410
      ESP Fit Center  594 is at   3.057995  2.985095 -3.353085
      ESP Fit Center  595 is at  -7.289718 -3.558106 -0.618709
      ESP Fit Center  596 is at  -7.861328 -2.668663 -3.611460
      ESP Fit Center  597 is at  -7.102261 -2.140021 -4.277410
      ESP Fit Center  598 is at  -6.581600 -3.041831 -4.277410
      ESP Fit Center  599 is at  -1.738827 -3.313206 -1.514135
      ESP Fit Center  600 is at  -2.542283 -4.115145  0.767966
      ESP Fit Center  601 is at  -3.486377  2.213677  2.115291
      ESP Fit Center  602 is at  -2.405371  1.718690 -1.754460
      ESP Fit Center  603 is at  -1.646303  1.190049 -2.420410
      ESP Fit Center  604 is at  -1.125643  0.288238 -2.420410
      ESP Fit Center  605 is at  -0.084322  0.288238 -2.420410
      ESP Fit Center  606 is at  -0.604982  1.190049 -2.658085
      ESP Fit Center  607 is at  -0.257982  1.147053  6.363915
      ESP Fit Center  608 is at   0.783339  1.147053  6.126241
      ESP Fit Center  609 is at   0.262679  2.048863  6.126241
      ESP Fit Center  610 is at  -0.778642  2.048863  6.126241
      ESP Fit Center  611 is at  -1.299303  1.147053  6.126241
      ESP Fit Center  612 is at  -0.778642  0.245243  6.126241
      ESP Fit Center  613 is at   0.262679  0.245243  6.126241
      ESP Fit Center  614 is at   1.618414  1.147053  5.460291
      ESP Fit Center  615 is at   1.320543  2.161509  5.460291
      ESP Fit Center  616 is at   0.521501  2.853882  5.460291
      ESP Fit Center  617 is at  -0.525021  3.004350  5.460291
      ESP Fit Center  618 is at  -1.486760  2.565138  5.460291
      ESP Fit Center  619 is at  -2.058370  1.675695  5.460291
      ESP Fit Center  620 is at  -0.525021 -0.710244  5.460291
      ESP Fit Center  621 is at   0.521501 -0.559776  5.460291
      ESP Fit Center  622 is at   1.320543  0.132597  5.460291
      ESP Fit Center  623 is at   2.081845  1.147053  4.497966
      ESP Fit Center  624 is at   1.850130  2.162266  4.497966
      ESP Fit Center  625 is at   1.200877  2.976403  4.497966
      ESP Fit Center  626 is at   0.262679  3.428216  4.497966
      ESP Fit Center  627 is at  -0.778642  3.428216  4.497966
      ESP Fit Center  628 is at  -1.716840  2.976403  4.497966
      ESP Fit Center  629 is at   0.262679 -1.134110  4.497966
      ESP Fit Center  630 is at   1.200877 -0.682297  4.497966
      ESP Fit Center  631 is at   1.850130  0.131840  4.497966
      ESP Fit Center  632 is at   2.081845  1.147053  3.429865
      ESP Fit Center  633 is at   1.850130  2.162266  3.429865
      ESP Fit Center  634 is at   1.200877  2.976403  3.429865
      ESP Fit Center  635 is at   0.262679  3.428216  3.429865
      ESP Fit Center  636 is at  -0.778642  3.428216  3.429865
      ESP Fit Center  637 is at  -1.716840  2.976403  3.429865
      ESP Fit Center  638 is at   1.200877 -0.682297  3.429865
      ESP Fit Center  639 is at   1.850130  0.131840  3.429865
      ESP Fit Center  640 is at   1.618414  1.147053  2.467540
      ESP Fit Center  641 is at   1.320543  2.161509  2.467540
      ESP Fit Center  642 is at   0.521501  2.853882  2.467540
      ESP Fit Center  643 is at  -1.973641 -0.378982 -1.941410
      ESP Fit Center  644 is at  -2.494302  0.522828 -1.941410
      ESP Fit Center  645 is at  -5.762606 -4.003173 -0.399034
      ESP Fit Center  646 is at   1.686019  1.091078  1.996915
      ESP Fit Center  647 is at   2.727340  1.091078  1.759241
      ESP Fit Center  648 is at   2.206679  1.992888  1.759241
      ESP Fit Center  649 is at   0.457241 -0.327007 -1.899460
      ESP Fit Center  650 is at   1.165358  0.189267 -2.565410
      ESP Fit Center  651 is at   2.206679  0.189267 -2.565410
      ESP Fit Center  652 is at   1.686019  1.091078 -2.803085
      ESP Fit Center  653 is at   2.669052 -1.488910  2.713915
      ESP Fit Center  654 is at   3.740565 -1.488910  2.500778
      ESP Fit Center  655 is at   3.204809 -0.560952  2.500778
      ESP Fit Center  656 is at   2.133295 -0.560952  2.500778
      ESP Fit Center  657 is at   1.597538 -1.488910  2.500778
      ESP Fit Center  658 is at   2.133295 -2.416868  2.500778
      ESP Fit Center  659 is at   3.204809 -2.416868  2.500778
      ESP Fit Center  660 is at   2.669052  0.490989  1.893814
      ESP Fit Center  661 is at   0.954409 -2.478859  1.893814
      ESP Fit Center  662 is at   1.679102 -3.203552  1.893814
      ESP Fit Center  663 is at   0.576236 -3.009429  0.985429
      ESP Fit Center  664 is at   1.375620 -3.729198  0.985429
      ESP Fit Center  665 is at   0.288444 -2.962920 -0.086085
      ESP Fit Center  666 is at   0.981675 -3.723358 -0.086085
      ESP Fit Center  667 is at   0.576236 -3.009429 -1.157598
      ESP Fit Center  668 is at   1.375620 -3.729198 -1.157598
      ESP Fit Center  669 is at   0.954409 -0.498960 -2.065983
      ESP Fit Center  670 is at   0.689153 -1.488910 -2.065983
      ESP Fit Center  671 is at   0.954409 -2.478859 -2.065983
      ESP Fit Center  672 is at   1.679102 -3.203552 -2.065983
      ESP Fit Center  673 is at   3.740565 -1.488910 -2.672947
      ESP Fit Center  674 is at   3.204809 -0.560952 -2.672947
      ESP Fit Center  675 is at   2.133295 -0.560952 -2.672947
      ESP Fit Center  676 is at   1.597538 -1.488910 -2.672947
      ESP Fit Center  677 is at   2.133295 -2.416868 -2.672947
      ESP Fit Center  678 is at   3.204809 -2.416868 -2.672947
      ESP Fit Center  679 is at   2.669052 -1.488910 -2.886085
      ESP Fit Center  680 is at   3.584070 -2.880898  2.472915
      ESP Fit Center  681 is at   3.063409 -3.782708  2.235241
      ESP Fit Center  682 is at   4.104730 -3.782708  2.235241
      ESP Fit Center  683 is at   2.355292 -4.298983  1.569291
      ESP Fit Center  684 is at   3.317031 -4.738195  1.569291
      ESP Fit Center  685 is at   2.125211 -4.710248  0.606966
      ESP Fit Center  686 is at   3.063409 -5.162061  0.606966
      ESP Fit Center  687 is at   2.125211 -4.710248 -0.461135
      ESP Fit Center  688 is at   3.063409 -5.162061 -0.461135
      ESP Fit Center  689 is at   2.355292 -4.298983 -1.423460
      ESP Fit Center  690 is at   3.317031 -4.738195 -1.423460
      ESP Fit Center  691 is at   3.063409 -3.782708 -2.089410
      ESP Fit Center  692 is at   4.104730 -3.782708 -2.089410
      ESP Fit Center  693 is at   7.142043 -0.828865  1.194684
      ESP Fit Center  694 is at   6.662043  0.002520  1.194684
      ESP Fit Center  695 is at   7.844812 -0.828865  0.491915
      ESP Fit Center  696 is at   7.527252  0.148486  0.491915
      ESP Fit Center  697 is at   6.695867  0.752522  0.491915
      ESP Fit Center  698 is at   7.527252 -1.806216  0.491915
      ESP Fit Center  699 is at   8.102043 -0.828865 -0.468085
      ESP Fit Center  700 is at   7.844812  0.131135 -0.468085
      ESP Fit Center  701 is at   7.142043  0.833904 -0.468085
      ESP Fit Center  702 is at   7.844812 -1.788865 -0.468085
      ESP Fit Center  703 is at   7.844812 -0.828865 -1.428085
      ESP Fit Center  704 is at   7.527252  0.148486 -1.428085
      ESP Fit Center  705 is at   6.695867  0.752522 -1.428085
      ESP Fit Center  706 is at   7.527252 -1.806216 -1.428085
      ESP Fit Center  707 is at   7.142043 -0.828865 -2.130853
      ESP Fit Center  708 is at   6.662043  0.002520 -2.130853
      ESP Fit Center  709 is at   2.560972  5.597467  0.366684
      ESP Fit Center  710 is at   3.426180  5.743434 -0.336085
      ESP Fit Center  711 is at   2.594796  6.347470 -0.336085
      ESP Fit Center  712 is at   1.567148  6.347470 -0.336085
      ESP Fit Center  713 is at   3.743741  5.726083 -1.296085
      ESP Fit Center  714 is at   3.040972  6.428852 -1.296085
      ESP Fit Center  715 is at   2.080972  6.686083 -1.296085
      ESP Fit Center  716 is at   1.120972  6.428852 -1.296085
      ESP Fit Center  717 is at   3.426180  5.743434 -2.256085
      ESP Fit Center  718 is at   2.594796  6.347470 -2.256085
      ESP Fit Center  719 is at   1.567148  6.347470 -2.256085
      ESP Fit Center  720 is at   3.040972  4.766083 -2.958853
      ESP Fit Center  721 is at   2.560972  5.597467 -2.958853
      ESP Fit Center  722 is at   1.600972  5.597467 -2.958853
      ESP Fit Center  723 is at   2.080972  4.766083 -3.216085
      ESP Fit Center  724 is at   5.815015  1.394118  0.877684
      ESP Fit Center  725 is at   6.517784  1.394118  0.174915
      ESP Fit Center  726 is at   6.200223  2.371469  0.174915
      ESP Fit Center  727 is at   5.368839  2.975505  0.174915
      ESP Fit Center  728 is at   6.775015  1.394118 -0.785085
      ESP Fit Center  729 is at   6.517784  2.354118 -0.785085
      ESP Fit Center  730 is at   5.815015  3.056887 -0.785085
      ESP Fit Center  731 is at   6.517784  1.394118 -1.745085
      ESP Fit Center  732 is at   6.200223  2.371469 -1.745085
      ESP Fit Center  733 is at   5.368839  2.975505 -1.745085
      ESP Fit Center  734 is at   5.815015  1.394118 -2.447853
      ESP Fit Center  735 is at   5.335015  2.225503 -2.447853
      ESP Fit Center  736 is at   0.705035 -0.972325  2.874684
      ESP Fit Center  737 is at   1.570243  0.836410  2.171915
      ESP Fit Center  738 is at   0.738858 -1.722328  2.171915
      ESP Fit Center  739 is at   0.050869 -2.551337  0.754915
      ESP Fit Center  740 is at   0.050869 -2.551337 -1.165085
      ESP Fit Center  741 is at   0.497045 -0.969950 -1.867853
      ESP Fit Center  742 is at  -1.422955 -0.969950 -1.867853
      ESP Fit Center  743 is at  -0.942955 -1.801334 -1.867853
      ESP Fit Center  744 is at   0.017045 -1.801334 -1.867853
      ESP Fit Center  745 is at  -0.462955 -0.969950 -2.125085
      ESP Fit Center  746 is at  -3.119971  0.315017  4.808915
      ESP Fit Center  747 is at  -3.599971  1.146401  4.551684
      ESP Fit Center  748 is at  -4.079971  0.315017  4.551684
      ESP Fit Center  749 is at  -3.599971 -0.516368  4.551684
      ESP Fit Center  750 is at  -3.633795  1.896404  3.848915
      ESP Fit Center  751 is at  -4.465179  1.292368  3.848915
      ESP Fit Center  752 is at  -4.782740  0.315017  3.848915
      ESP Fit Center  753 is at  -4.465179 -0.662334  3.848915
      ESP Fit Center  754 is at  -3.119971  2.235017  2.888915
      ESP Fit Center  755 is at  -4.079971  1.977785  2.888915
      ESP Fit Center  756 is at  -4.782740  1.275017  2.888915
      ESP Fit Center  757 is at  -2.592953 -1.961355  4.409684
      ESP Fit Center  758 is at  -1.632953 -1.961355  4.409684
      ESP Fit Center  759 is at  -3.458161 -2.107322  3.706915
      ESP Fit Center  760 is at  -2.626777 -2.711358  3.706915
      ESP Fit Center  761 is at  -1.599129 -2.711358  3.706915
      ESP Fit Center  762 is at  -0.767745 -2.107322  3.706915
      ESP Fit Center  763 is at  -2.112953 -3.049971  2.746915
      ESP Fit Center  764 is at  -1.152953 -2.792739  2.746915
      ESP Fit Center  765 is at  -0.450184 -2.089971  2.746915
      ESP Fit Center  766 is at  -0.767745 -2.107322  1.786915
      ESP Fit Center  767 is at  -3.847983  2.068386  2.161684
      ESP Fit Center  768 is at  -4.807983  2.068386  2.161684
      ESP Fit Center  769 is at  -3.814159  2.818388  1.458915
      ESP Fit Center  770 is at  -4.841807  2.818388  1.458915
      ESP Fit Center  771 is at  -5.673191  2.214352  1.458915
      ESP Fit Center  772 is at  -4.327983  3.157001  0.498915
      ESP Fit Center  773 is at  -5.287983  2.899770  0.498915
      ESP Fit Center  774 is at  -5.990752  2.197001  0.498915
      ESP Fit Center  775 is at  -4.841807  2.818388 -0.461085
      ESP Fit Center  776 is at  -5.673191  2.214352 -0.461085
      ESP Fit Center  777 is at  -5.317964  0.604379  3.017684
      ESP Fit Center  778 is at  -5.797964 -0.227005  3.017684
      ESP Fit Center  779 is at  -5.317964 -1.058390  3.017684
      ESP Fit Center  780 is at  -5.351788  1.354382  2.314915
      ESP Fit Center  781 is at  -6.183172  0.750346  2.314915
      ESP Fit Center  782 is at  -6.500733 -0.227005  2.314915
      ESP Fit Center  783 is at  -6.183172 -1.204356  2.314915
      ESP Fit Center  784 is at  -5.351788 -1.808392  2.314915
      ESP Fit Center  785 is at  -6.500733  0.732995  1.354915
      ESP Fit Center  786 is at  -6.757964 -0.227005  1.354915
      ESP Fit Center  787 is at  -6.720969  0.948361  0.990684
      ESP Fit Center  788 is at  -7.200969  0.116977  0.990684
      ESP Fit Center  789 is at  -6.754792  1.698364  0.287915
      ESP Fit Center  790 is at  -7.586177  1.094328  0.287915
      ESP Fit Center  791 is at  -7.903737  0.116977  0.287915
      ESP Fit Center  792 is at  -7.586177 -0.860374  0.287915
      ESP Fit Center  793 is at  -6.240969  2.036977 -0.672085
      ESP Fit Center  794 is at  -7.200969  1.779746 -0.672085
      ESP Fit Center  795 is at  -7.903737  1.076977 -0.672085
      ESP Fit Center  796 is at  -8.160969  0.116977 -0.672085
      ESP Fit Center  797 is at  -6.754792  1.698364 -1.632085
      ESP Fit Center  798 is at  -7.586177  1.094328 -1.632085
      ESP Fit Center  799 is at  -7.903737  0.116977 -1.632085
      ESP Fit Center  800 is at  -6.720969  0.948361 -2.334853
      ESP Fit Center  801 is at  -3.106201  1.139996 -1.689085
      ESP Fit Center  802 is at  -3.808969  1.842764 -1.689085
      ESP Fit Center  803 is at  -4.768969  2.099996 -1.689085
      ESP Fit Center  804 is at  -3.106201  0.179996 -2.649085
      ESP Fit Center  805 is at  -3.423761  1.157347 -2.649085
      ESP Fit Center  806 is at  -4.255146  1.761383 -2.649085
      ESP Fit Center  807 is at  -5.282793  1.761383 -2.649085
      ESP Fit Center  808 is at  -6.114178  1.157347 -2.649085
      ESP Fit Center  809 is at  -3.808969  0.179996 -3.351853
      ESP Fit Center  810 is at  -4.288969  1.011380 -3.351853
      ESP Fit Center  811 is at  -5.248969  1.011380 -3.351853
      ESP Fit Center  812 is at  -5.728969  0.179996 -3.351853
      ESP Fit Center  813 is at  -4.768969  0.179996 -3.609085
      ESP Fit Center  814 is at  -4.426924 -4.217378  0.640684
      ESP Fit Center  815 is at  -3.466924 -4.217378  0.640684
      ESP Fit Center  816 is at  -5.292132 -4.363345 -0.062085
      ESP Fit Center  817 is at  -4.460748 -4.967381 -0.062085
      ESP Fit Center  818 is at  -3.433100 -4.967381 -0.062085
      ESP Fit Center  819 is at  -2.601716 -4.363345 -0.062085
      ESP Fit Center  820 is at  -4.906924 -5.048763 -1.022085
      ESP Fit Center  821 is at  -3.946924 -5.305994 -1.022085
      ESP Fit Center  822 is at  -2.986924 -5.048763 -1.022085
      ESP Fit Center  823 is at  -2.284155 -4.345994 -1.022085
      ESP Fit Center  824 is at  -4.460748 -4.967381 -1.982085
      ESP Fit Center  825 is at  -3.433100 -4.967381 -1.982085
      ESP Fit Center  826 is at  -2.601716 -4.363345 -1.982085
      ESP Fit Center  827 is at  -4.426924 -4.217378 -2.684853
      ESP Fit Center  828 is at  -3.466924 -4.217378 -2.684853
      ESP Fit Center  829 is at  -1.465943 -1.930987 -1.899085
      ESP Fit Center  830 is at  -1.723174 -0.970987 -1.899085
      ESP Fit Center  831 is at  -1.723174 -1.930987 -2.859085
      ESP Fit Center  832 is at  -2.040734 -0.953636 -2.859085
      ESP Fit Center  833 is at  -2.872119 -0.349600 -2.859085
      ESP Fit Center  834 is at  -2.872119 -3.512374 -2.859085
      ESP Fit Center  835 is at  -2.040734 -2.908338 -2.859085
      ESP Fit Center  836 is at  -2.425943 -1.930987 -3.561853
      ESP Fit Center  837 is at  -2.905943 -1.099602 -3.561853
      ESP Fit Center  838 is at  -3.865943 -2.762371 -3.561853
      ESP Fit Center  839 is at  -2.905943 -2.762371 -3.561853
      ESP Fit Center  840 is at  -3.385943 -1.930987 -3.819085
      ESP Fit Center  841 is at  -1.573939 -3.077354  1.818684
      ESP Fit Center  842 is at  -1.540115 -3.827357  1.115915
      ESP Fit Center  843 is at  -0.708730 -3.223321  1.115915
      ESP Fit Center  844 is at  -2.053939 -4.165970  0.155915
      ESP Fit Center  845 is at  -1.093939 -3.908739  0.155915
      ESP Fit Center  846 is at  -0.391170 -3.205970  0.155915
      ESP Fit Center  847 is at  -1.540115 -3.827357 -0.804085
      ESP Fit Center  848 is at  -0.708730 -3.223321 -0.804085
      ESP Fit Center  849 is at  -1.093939 -2.245970 -1.506853
      ESP Fit Center  850 is at  -1.573939 -3.077354 -1.506853
      ESP Fit Center  851 is at  -4.477938 -2.250989  2.815684
      ESP Fit Center  852 is at  -3.997938 -3.082373  2.815684
      ESP Fit Center  853 is at  -3.037938 -3.082373  2.815684
      ESP Fit Center  854 is at  -5.180707 -2.250989  2.112915
      ESP Fit Center  855 is at  -4.863147 -3.228339  2.112915
      ESP Fit Center  856 is at  -4.031762 -3.832376  2.112915
      ESP Fit Center  857 is at  -3.004115 -3.832376  2.112915
      ESP Fit Center  858 is at  -2.172730 -3.228339  2.112915
      ESP Fit Center  859 is at  -4.477938 -3.913757  1.152915
      ESP Fit Center  860 is at  -3.517938 -4.170989  1.152915
      ESP Fit Center  861 is at  -3.004819  3.794412  1.058915
      ESP Fit Center  862 is at  -3.836204  3.190376  1.058915
      ESP Fit Center  863 is at  -3.450995  3.875793  0.098915
      ESP Fit Center  864 is at  -4.153764  3.173025  0.098915
      ESP Fit Center  865 is at  -3.836204  3.190376 -0.861085
      ESP Fit Center  866 is at  -3.450995  2.213025 -1.563853
      ESP Fit Center  867 is at  -2.970995  1.381640 -1.563853
      ESP Fit Center  868 is at  -1.804996  3.129424  3.117684
      ESP Fit Center  869 is at   0.020212  3.275390  2.414915
      ESP Fit Center  870 is at  -0.811173  3.879427  2.414915
      ESP Fit Center  871 is at  -1.838820  3.879427  2.414915
      ESP Fit Center  872 is at  -2.670205  3.275390  2.414915
      ESP Fit Center  873 is at  -2.284996  3.960808  1.454915
      ESP Fit Center  874 is at  -5.693940 -2.103016  1.830915
      ESP Fit Center  875 is at  -6.653940 -2.103016  1.573684
      ESP Fit Center  876 is at  -6.173940 -2.934401  1.573684
      ESP Fit Center  877 is at  -7.039149 -1.125665  0.870915
      ESP Fit Center  878 is at  -7.356709 -2.103016  0.870915
      ESP Fit Center  879 is at  -7.039149 -3.080367  0.870915
      ESP Fit Center  880 is at  -6.207764 -3.684403  0.870915
      ESP Fit Center  881 is at  -5.180117 -3.684403  0.870915
      ESP Fit Center  882 is at  -7.613940 -2.103016 -0.089085
      ESP Fit Center  883 is at  -7.356709 -3.063016 -0.089085
      ESP Fit Center  884 is at  -6.653940 -3.765785 -0.089085
      ESP Fit Center  885 is at  -5.693940 -4.023016 -0.089085
      ESP Fit Center  886 is at  -8.027945 -1.737034 -0.343316
      ESP Fit Center  887 is at  -8.413153 -0.759683 -1.046085
      ESP Fit Center  888 is at  -8.730714 -1.737034 -1.046085
      ESP Fit Center  889 is at  -8.413153 -2.714385 -1.046085
      ESP Fit Center  890 is at  -8.027945 -0.074265 -2.006085
      ESP Fit Center  891 is at  -8.730714 -0.777034 -2.006085
      ESP Fit Center  892 is at  -8.987945 -1.737034 -2.006085
      ESP Fit Center  893 is at  -8.730714 -2.697034 -2.006085
      ESP Fit Center  894 is at  -7.581769 -0.155647 -2.966085
      ESP Fit Center  895 is at  -8.413153 -0.759683 -2.966085
      ESP Fit Center  896 is at  -8.730714 -1.737034 -2.966085
      ESP Fit Center  897 is at  -8.413153 -2.714385 -2.966085
      ESP Fit Center  898 is at  -7.547945 -0.905649 -3.668853
      ESP Fit Center  899 is at  -8.027945 -1.737034 -3.668853
      ESP Fit Center  900 is at  -3.926176 -1.742015 -3.973085
      ESP Fit Center  901 is at  -4.243737 -0.764664 -3.973085
      ESP Fit Center  902 is at  -5.075121 -0.160628 -3.973085
      ESP Fit Center  903 is at  -6.102769 -0.160628 -3.973085
      ESP Fit Center  904 is at  -6.934153 -0.764664 -3.973085
      ESP Fit Center  905 is at  -5.075121 -3.323402 -3.973085
      ESP Fit Center  906 is at  -4.243737 -2.719366 -3.973085
      ESP Fit Center  907 is at  -4.628945 -1.742015 -4.675853
      ESP Fit Center  908 is at  -5.108945 -0.910631 -4.675853
      ESP Fit Center  909 is at  -6.068945 -0.910631 -4.675853
      ESP Fit Center  910 is at  -6.548945 -1.742015 -4.675853
      ESP Fit Center  911 is at  -6.068945 -2.573399 -4.675853
      ESP Fit Center  912 is at  -5.108945 -2.573399 -4.675853
      ESP Fit Center  913 is at  -5.588945 -1.742015 -4.933085
      ESP Fit Center  914 is at  -6.570926 -4.060406 -0.492316
      ESP Fit Center  915 is at  -7.436134 -4.206372 -1.195085
      ESP Fit Center  916 is at  -6.604750 -4.810408 -1.195085
      ESP Fit Center  917 is at  -5.577102 -4.810408 -1.195085
      ESP Fit Center  918 is at  -7.753695 -4.189021 -2.155085
      ESP Fit Center  919 is at  -7.050926 -4.891790 -2.155085
      ESP Fit Center  920 is at  -6.090926 -5.149021 -2.155085
      ESP Fit Center  921 is at  -5.130926 -4.891790 -2.155085
      ESP Fit Center  922 is at  -7.436134 -4.206372 -3.115085
      ESP Fit Center  923 is at  -6.604750 -4.810408 -3.115085
      ESP Fit Center  924 is at  -5.577102 -4.810408 -3.115085
      ESP Fit Center  925 is at  -4.745718 -4.206372 -3.115085
      ESP Fit Center  926 is at  -6.570926 -4.060406 -3.817853
      ESP Fit Center  927 is at  -5.610926 -4.060406 -3.817853
      ESP Fit Center  928 is at   0.227793  6.610440 -0.530085
      ESP Fit Center  929 is at  -0.799855  6.610440 -0.530085
      ESP Fit Center  930 is at   0.673969  6.691821 -1.490085
      ESP Fit Center  931 is at  -0.286031  6.949053 -1.490085
      ESP Fit Center  932 is at  -1.246031  6.691821 -1.490085
      ESP Fit Center  933 is at   1.059177  6.006404 -2.450085
      ESP Fit Center  934 is at   0.227793  6.610440 -2.450085
      ESP Fit Center  935 is at  -0.799855  6.610440 -2.450085
      ESP Fit Center  936 is at  -1.631239  6.006404 -2.450085
      ESP Fit Center  937 is at   0.673969  5.029053 -3.152853
      ESP Fit Center  938 is at   0.193969  5.860437 -3.152853
      ESP Fit Center  939 is at  -0.766031  5.860437 -3.152853
      ESP Fit Center  940 is at  -1.246031  5.029053 -3.152853
      ESP Fit Center  941 is at  -0.286031  5.029053 -3.410085
      ESP Fit Center  942 is at  -2.953782  4.545040 -1.677085
      ESP Fit Center  943 is at  -3.211013  3.585040 -1.677085
      ESP Fit Center  944 is at  -2.636221  4.562391 -2.637085
      ESP Fit Center  945 is at  -2.953782  3.585040 -2.637085
      ESP Fit Center  946 is at  -2.636221  2.607689 -2.637085
      ESP Fit Center  947 is at  -1.804837  2.003653 -2.637085
      ESP Fit Center  948 is at  -0.777189  2.003653 -2.637085
      ESP Fit Center  949 is at  -1.771013  4.416424 -3.339853
      ESP Fit Center  950 is at  -2.251013  3.585040 -3.339853
      ESP Fit Center  951 is at  -1.771013  2.753655 -3.339853
      ESP Fit Center  952 is at  -0.811013  2.753655 -3.339853
      ESP Fit Center  953 is at  -1.291013  3.585040 -3.597085
      ESP Fit Center  954 is at  -1.071022  4.322043  1.841915
      ESP Fit Center  955 is at  -0.111022  4.322043  1.584684
      ESP Fit Center  956 is at  -0.591022  5.153427  1.584684
      ESP Fit Center  957 is at  -1.551022  5.153427  1.584684
      ESP Fit Center  958 is at  -2.031022  4.322043  1.584684
      ESP Fit Center  959 is at   0.274186  5.299394  0.881915
      ESP Fit Center  960 is at  -0.557198  5.903430  0.881915
      ESP Fit Center  961 is at  -1.584846  5.903430  0.881915
      ESP Fit Center  962 is at  -2.416230  5.299394  0.881915
      ESP Fit Center  963 is at  -2.733791  4.322043  0.881915
      ESP Fit Center  964 is at  -1.071022  6.242043 -0.078085
      ESP Fit Center  965 is at  -2.031022  5.984811 -0.078085
      ESP Fit Center  966 is at  -2.733791  5.282043 -0.078085
      ESP Fit Center  967 is at  -2.991022  4.322043 -0.078085
      ESP Fit Center  968 is at   8.394081 -3.771861 -0.891085
      ESP Fit Center  969 is at   8.136850 -2.811861 -0.891085
      ESP Fit Center  970 is at   7.434081 -5.434630 -0.891085
      ESP Fit Center  971 is at   8.136850 -4.731861 -0.891085
      ESP Fit Center  972 is at   8.136850 -3.771861 -1.851085
      ESP Fit Center  973 is at   7.819289 -2.794510 -1.851085
      ESP Fit Center  974 is at   6.987905 -2.190474 -1.851085
      ESP Fit Center  975 is at   5.960257 -5.353248 -1.851085
      ESP Fit Center  976 is at   6.987905 -5.353248 -1.851085
      ESP Fit Center  977 is at   7.819289 -4.749212 -1.851085
      ESP Fit Center  978 is at   7.434081 -3.771861 -2.553853
      ESP Fit Center  979 is at   6.954081 -2.940477 -2.553853
      ESP Fit Center  980 is at   5.994081 -2.940477 -2.553853
      ESP Fit Center  981 is at   5.514081 -3.771861 -2.553853
      ESP Fit Center  982 is at   5.994081 -4.603246 -2.553853
      ESP Fit Center  983 is at   6.954081 -4.603246 -2.553853
      ESP Fit Center  984 is at   6.474081 -3.771861 -2.811085
      ESP Fit Center  985 is at   6.594077 -3.488860  2.770915
      ESP Fit Center  986 is at   7.554077 -3.488860  2.513684
      ESP Fit Center  987 is at   7.074077 -2.657475  2.513684
      ESP Fit Center  988 is at   6.114077 -2.657475  2.513684
      ESP Fit Center  989 is at   5.634077 -3.488860  2.513684
      ESP Fit Center  990 is at   6.114077 -4.320244  2.513684
      ESP Fit Center  991 is at   7.074077 -4.320244  2.513684
      ESP Fit Center  992 is at   8.256846 -3.488860  1.810915
      ESP Fit Center  993 is at   7.939286 -2.511509  1.810915
      ESP Fit Center  994 is at   7.107901 -1.907473  1.810915
      ESP Fit Center  995 is at   7.107901 -5.070247  1.810915
      ESP Fit Center  996 is at   7.939286 -4.466211  1.810915
      ESP Fit Center  997 is at   8.514077 -3.488860  0.850915
      ESP Fit Center  998 is at   8.256846 -2.528860  0.850915
      ESP Fit Center  999 is at   7.554077 -1.826091  0.850915
      ESP Fit Center 1000 is at   8.256846 -4.448860  0.850915
      ESP Fit Center 1001 is at   4.426092 -4.629875  1.884684
      ESP Fit Center 1002 is at   4.906092 -5.461259  1.884684
      ESP Fit Center 1003 is at   5.866092 -5.461259  1.884684
      ESP Fit Center 1004 is at   4.040884 -5.607226  1.181915
      ESP Fit Center 1005 is at   4.872268 -6.211262  1.181915
      ESP Fit Center 1006 is at   5.899916 -6.211262  1.181915
      ESP Fit Center 1007 is at   3.723323 -5.589875  0.221915
      ESP Fit Center 1008 is at   4.426092 -6.292644  0.221915
      ESP Fit Center 1009 is at   5.386092 -6.549875  0.221915
      ESP Fit Center 1010 is at   6.346092 -6.292644  0.221915
      ESP Fit Center 1011 is at   4.040884 -5.607226 -0.738085
      ESP Fit Center 1012 is at   4.872268 -6.211262 -0.738085
      ESP Fit Center 1013 is at   5.899916 -6.211262 -0.738085
      ESP Fit Center 1014 is at   4.906092 -5.461259 -1.440853
      ESP Fit Center 1015 is at   4.859835 -3.681869  2.527390
      ESP Fit Center 1016 is at   5.376457 -4.576685  2.527390
      ESP Fit Center 1017 is at   6.686185 -5.418527  1.942104
      ESP Fit Center 1018 is at   7.448359 -5.632127  1.066161
      ESP Fit Center 1019 is at   8.593080 -3.681869  0.032915
      ESP Fit Center 1020 is at   6.926325 -6.176343  0.032915
      ESP Fit Center 1021 is at   7.802268 -5.591057  0.032915
      ESP Fit Center 1022 is at   8.387555 -4.715114  0.032915
      ESP Fit Center 1023 is at   6.448153 -6.113802 -1.000330
      ESP Fit Center 1024 is at   4.642827 -5.124737 -1.876273
      ESP Fit Center 1025 is at   5.621374 -5.571624 -1.876273
      ESP Fit Center 1026 is at   4.877066 -2.585882  2.624915
      ESP Fit Center 1027 is at   5.393688 -1.691065  2.419390
      ESP Fit Center 1028 is at   4.360443 -3.480698 -2.569559
      ESP Fit Center 1029 is at   4.877066 -2.585882 -2.775085
      ESP Fit Center 1030 is at   5.181048 -1.223878  2.373915
      ESP Fit Center 1031 is at   6.214294 -1.223878  2.168390
      ESP Fit Center 1032 is at   5.697671 -0.329061  2.168390
      ESP Fit Center 1033 is at   7.090237 -1.223878  1.583104
      ESP Fit Center 1034 is at   6.787160 -0.191692  1.583104
      ESP Fit Center 1035 is at   5.974154  0.512781  1.583104
      ESP Fit Center 1036 is at   6.214294 -1.223878 -2.820559
      ESP Fit Center 1037 is at   5.697671 -0.329061 -2.820559
      ESP Fit Center 1038 is at   4.664426 -2.118694 -2.820559
      ESP Fit Center 1039 is at   5.697671 -2.118694 -2.820559
      ESP Fit Center 1040 is at   5.181048 -1.223878 -3.026085
      ESP Fit Center 1041 is at   4.550661  0.438924  2.128390
      ESP Fit Center 1042 is at   4.034039 -0.455892 -3.066085
      ESP Fit Center 1043 is at   2.859011  1.690093  2.043915
      ESP Fit Center 1044 is at   3.375634  2.584909  1.838390
      ESP Fit Center 1045 is at   2.342389  2.584909  1.838390
      ESP Fit Center 1046 is at   1.825766  1.690093 -3.150559
      ESP Fit Center 1047 is at   2.342389  0.795276 -3.150559
      ESP Fit Center 1048 is at   2.859011  1.690093 -3.356085
      ESP Fit Center 1049 is at   1.938985  3.718081  1.665915
      ESP Fit Center 1050 is at   2.455608  4.612898  1.460390
      ESP Fit Center 1051 is at   1.422363  4.612898  1.460390
      ESP Fit Center 1052 is at   2.732091  5.454740  0.875104
      ESP Fit Center 1053 is at   1.667280  5.607837  0.875104
      ESP Fit Center 1054 is at   3.545097  4.750266 -2.943273
      ESP Fit Center 1055 is at   2.455608  4.612898 -3.528559
      ESP Fit Center 1056 is at   1.422363  4.612898 -3.528559
      ESP Fit Center 1057 is at   0.905740  3.718081 -3.528559
      ESP Fit Center 1058 is at   1.422363  2.823264 -3.528559
      ESP Fit Center 1059 is at   1.938985  3.718081 -3.734085
      ESP Fit Center 1060 is at   0.648992  3.226065  1.873915
      ESP Fit Center 1061 is at   1.682237  3.226065  1.668390
      ESP Fit Center 1062 is at   1.165614  4.120881  1.668390
      ESP Fit Center 1063 is at   0.132369  2.331248 -3.320559
      ESP Fit Center 1064 is at   1.165614  2.331248 -3.320559
      ESP Fit Center 1065 is at   0.648992  3.226065 -3.526085
      ESP Fit Center 1066 is at   3.983021  0.906107  2.099915
      ESP Fit Center 1067 is at   5.016267  0.906107  1.894390
      ESP Fit Center 1068 is at   4.499644  1.800924  1.894390
      ESP Fit Center 1069 is at   5.892210  0.906107  1.309104
      ESP Fit Center 1070 is at   5.589133  1.938292  1.309104
      ESP Fit Center 1071 is at   4.776127  2.642766  1.309104
      ESP Fit Center 1072 is at   5.016267  0.906107 -3.094559
      ESP Fit Center 1073 is at   4.499644  1.800924 -3.094559
      ESP Fit Center 1074 is at   3.466399  0.011290 -3.094559
      ESP Fit Center 1075 is at   4.499644  0.011290 -3.094559
      ESP Fit Center 1076 is at   3.983021  0.906107 -3.300085
      ESP Fit Center 1077 is at   0.225086  5.819708  0.888104
      ESP Fit Center 1078 is at  -1.123092  6.514982  0.012161
      ESP Fit Center 1079 is at  -2.477207  5.992237 -1.021085
      ESP Fit Center 1080 is at  -3.062494  5.116294 -1.021085
      ESP Fit Center 1081 is at  -2.123299  6.033308 -2.054330
      ESP Fit Center 1082 is at  -2.815463  5.165361 -2.054330
      ESP Fit Center 1083 is at  -1.818272  5.525917 -2.930273
      ESP Fit Center 1084 is at   0.465226  4.083049 -3.515559
      ESP Fit Center 1085 is at  -1.084642  4.977866 -3.515559
      ESP Fit Center 1086 is at  -0.051397  3.188232 -3.515559
      ESP Fit Center 1087 is at  -0.568019  4.083049 -3.721085
      ESP Fit Center 1088 is at   1.110632  2.760881  2.017390
      ESP Fit Center 1089 is at  -0.439236  1.866064 -2.971559
      ESP Fit Center 1090 is at   0.077386  0.971247 -2.971559
      ESP Fit Center 1091 is at   0.594009  1.866064 -3.177085
      ESP Fit Center 1092 is at  -0.008893 -2.531884  1.484161
      ESP Fit Center 1093 is at  -3.176212 -0.050971  5.044390
      ESP Fit Center 1094 is at  -2.659589 -0.945788  5.044390
      ESP Fit Center 1095 is at  -3.393219 -1.493839  4.459104
      ESP Fit Center 1096 is at  -2.138220  0.595042  5.847390
      ESP Fit Center 1097 is at  -1.621597 -0.299774  5.847390
      ESP Fit Center 1098 is at  -2.936827  1.132923  5.262104
      ESP Fit Center 1099 is at  -2.936827  0.057162  5.262104
      ESP Fit Center 1100 is at  -2.355227 -0.847826  5.262104
      ESP Fit Center 1101 is at  -1.376681 -1.294713  5.262104
      ESP Fit Center 1102 is at  -2.660254  2.545301  4.386161
      ESP Fit Center 1103 is at  -0.549902 -1.836891  4.386161
      ESP Fit Center 1104 is at  -2.138220  3.089517  3.352915
      ESP Fit Center 1105 is at  -3.014163  2.504231  3.352915
      ESP Fit Center 1106 is at  -0.071729 -1.899432  3.352915
      ESP Fit Center 1107 is at   0.804214 -1.314146  3.352915
      ESP Fit Center 1108 is at  -5.605221  1.588869  2.340104
      ESP Fit Center 1109 is at  -6.602413  1.228313  1.464161
      ESP Fit Center 1110 is at  -7.037817 -0.759891  1.137104
      ESP Fit Center 1111 is at  -5.761037  2.209923 -1.805330
      ESP Fit Center 1112 is at  -6.456217  1.220858 -2.681273
      ESP Fit Center 1113 is at  -7.037817  0.315870 -2.681273
      ESP Fit Center 1114 is at   3.057995  2.985095  1.746915
      ESP Fit Center 1115 is at   4.091240  2.985095  1.541390
      ESP Fit Center 1116 is at   3.574617  3.879912  1.541390
      ESP Fit Center 1117 is at   4.967183  2.985095  0.956104
      ESP Fit Center 1118 is at   4.664106  4.017280  0.956104
      ESP Fit Center 1119 is at   3.851100  4.721754  0.956104
      ESP Fit Center 1120 is at   5.305439  4.067407  0.080161
      ESP Fit Center 1121 is at   4.613274  4.935354  0.080161
      ESP Fit Center 1122 is at   5.552470  4.018341 -0.953085
      ESP Fit Center 1123 is at   4.967183  4.894284 -0.953085
      ESP Fit Center 1124 is at   4.091240  5.479570 -0.953085
      ESP Fit Center 1125 is at   5.305439  4.067407 -1.986330
      ESP Fit Center 1126 is at   4.613274  4.935354 -1.986330
      ESP Fit Center 1127 is at   4.967183  2.985095 -2.862273
      ESP Fit Center 1128 is at   4.664106  4.017280 -2.862273
      ESP Fit Center 1129 is at   3.851100  4.721754 -2.862273
      ESP Fit Center 1130 is at   4.091240  2.985095 -3.447559
      ESP Fit Center 1131 is at   3.574617  3.879912 -3.447559
      ESP Fit Center 1132 is at   2.541372  2.090279 -3.447559
      ESP Fit Center 1133 is at   3.574617  2.090279 -3.447559
      ESP Fit Center 1134 is at   3.057995  2.985095 -3.653085
      ESP Fit Center 1135 is at  -7.892793 -2.677901 -0.205896
      ESP Fit Center 1136 is at  -7.311192 -3.582889 -0.205896
      ESP Fit Center 1137 is at  -6.616013  0.291912 -3.148330
      ESP Fit Center 1138 is at  -8.308384 -3.222333 -3.148330
      ESP Fit Center 1139 is at  -7.311192 -0.697153 -4.024273
      ESP Fit Center 1140 is at  -7.892793 -1.602140 -4.024273
      ESP Fit Center 1141 is at  -7.892793 -2.677901 -4.024273
      ESP Fit Center 1142 is at  -7.311192 -3.582889 -4.024273
      ESP Fit Center 1143 is at  -7.094185 -2.140021 -4.609559
      ESP Fit Center 1144 is at  -6.577562 -3.034838 -4.609559
      ESP Fit Center 1145 is at  -1.937750 -4.207181 -0.980085
      ESP Fit Center 1146 is at  -1.599494 -3.380305 -2.013330
      ESP Fit Center 1147 is at  -3.053832 -4.034651 -2.889273
      ESP Fit Center 1148 is at  -2.507871 -4.265916  1.267161
      ESP Fit Center 1149 is at  -3.241268  3.635294  1.652161
      ESP Fit Center 1150 is at  -2.436835  1.727929 -2.167273
      ESP Fit Center 1151 is at  -1.638228  1.190049 -2.752559
      ESP Fit Center 1152 is at  -1.121605  0.295232 -2.752559
      ESP Fit Center 1153 is at  -0.088360  0.295232 -2.752559
      ESP Fit Center 1154 is at  -0.604982  1.190049 -2.958085
      ESP Fit Center 1155 is at  -0.257982  1.147053  6.663915
      ESP Fit Center 1156 is at   0.775264  1.147053  6.458390
      ESP Fit Center 1157 is at   0.258641  2.041870  6.458390
      ESP Fit Center 1158 is at  -0.774604  2.041870  6.458390
      ESP Fit Center 1159 is at  -1.291227  1.147053  6.458390
      ESP Fit Center 1160 is at  -0.774604  0.252236  6.458390
      ESP Fit Center 1161 is at   0.258641  0.252236  6.458390
      ESP Fit Center 1162 is at   1.651207  1.147053  5.873104
      ESP Fit Center 1163 is at   1.348130  2.179238  5.873104
      ESP Fit Center 1164 is at   0.535124  2.883712  5.873104
      ESP Fit Center 1165 is at  -0.529688  3.036809  5.873104
      ESP Fit Center 1166 is at  -1.508234  2.589921  5.873104
      ESP Fit Center 1167 is at  -2.089835  1.684934  5.873104
      ESP Fit Center 1168 is at  -2.089835  0.609173  5.873104
      ESP Fit Center 1169 is at  -1.508234 -0.295815  5.873104
      ESP Fit Center 1170 is at  -0.529688 -0.742702  5.873104
      ESP Fit Center 1171 is at   0.535124 -0.589606  5.873104
      ESP Fit Center 1172 is at   1.348130  0.114868  5.873104
      ESP Fit Center 1173 is at   2.236493  1.147053  4.997161
      ESP Fit Center 1174 is at   1.989462  2.229365  4.997161
      ESP Fit Center 1175 is at   1.297298  3.097312  4.997161
      ESP Fit Center 1176 is at   0.297091  3.578986  4.997161
      ESP Fit Center 1177 is at  -0.813055  3.578986  4.997161
      ESP Fit Center 1178 is at  -1.813261  3.097312  4.997161
      ESP Fit Center 1179 is at  -2.505426  2.229365  4.997161
      ESP Fit Center 1180 is at   0.297091 -1.284880  4.997161
      ESP Fit Center 1181 is at   1.297298 -0.803206  4.997161
      ESP Fit Center 1182 is at   1.989462  0.064741  4.997161
      ESP Fit Center 1183 is at   2.442018  1.147053  3.963915
      ESP Fit Center 1184 is at   2.236493  2.180298  3.963915
      ESP Fit Center 1185 is at   1.651207  3.056241  3.963915
      ESP Fit Center 1186 is at   0.775264  3.641528  3.963915
      ESP Fit Center 1187 is at  -0.257982  3.847053  3.963915
      ESP Fit Center 1188 is at  -1.291227  3.641528  3.963915
      ESP Fit Center 1189 is at  -2.167170  3.056241  3.963915
      ESP Fit Center 1190 is at   0.775264 -1.347422  3.963915
      ESP Fit Center 1191 is at   1.651207 -0.762135  3.963915
      ESP Fit Center 1192 is at   2.236493  0.113808  3.963915
      ESP Fit Center 1193 is at   2.236493  1.147053  2.930670
      ESP Fit Center 1194 is at   1.989462  2.229365  2.930670
      ESP Fit Center 1195 is at   1.297298  3.097312  2.930670
      ESP Fit Center 1196 is at   0.297091  3.578986  2.930670
      ESP Fit Center 1197 is at   1.989462  0.064741  2.930670
      ESP Fit Center 1198 is at  -2.498340  0.515835 -2.273559
      ESP Fit Center 1199 is at   2.719264  1.091078  2.091390
      ESP Fit Center 1200 is at   2.202642  1.985894  2.091390
      ESP Fit Center 1201 is at   0.435767 -0.351790 -2.312273
      ESP Fit Center 1202 is at   1.169396  0.196261 -2.897559
      ESP Fit Center 1203 is at   2.202642  0.196261 -2.897559
      ESP Fit Center 1204 is at   1.686019  1.091078 -3.103085
      ESP Fit Center 1205 is at   2.669052 -1.488910  3.063915
      ESP Fit Center 1206 is at   3.746415 -1.488910  2.873947
      ESP Fit Center 1207 is at   3.207734 -0.555886  2.873947
      ESP Fit Center 1208 is at   2.130370 -0.555886  2.873947
      ESP Fit Center 1209 is at   1.591688 -1.488910  2.873947
      ESP Fit Center 1210 is at   2.130370 -2.421934  2.873947
      ESP Fit Center 1211 is at   3.207734 -2.421934  2.873947
      ESP Fit Center 1212 is at   4.422564 -0.476519  2.326955
      ESP Fit Center 1213 is at   3.681442  0.264602  2.326955
      ESP Fit Center 1214 is at   2.669052  0.535871  2.326955
      ESP Fit Center 1215 is at   0.915540 -2.501300  2.326955
      ESP Fit Center 1216 is at   1.656661 -3.242421  2.326955
      ESP Fit Center 1217 is at   0.148727 -2.532862  1.488915
      ESP Fit Center 1218 is at   0.740079 -3.417883  1.488915
      ESP Fit Center 1219 is at   0.292671 -3.482930  0.460907
      ESP Fit Center 1220 is at   1.117980 -4.175446  0.460907
      ESP Fit Center 1221 is at   0.292671 -3.482930 -0.633076
      ESP Fit Center 1222 is at   1.117980 -4.175446 -0.633076
      ESP Fit Center 1223 is at   0.148727 -2.532862 -1.661085
      ESP Fit Center 1224 is at   0.740079 -3.417883 -1.661085
      ESP Fit Center 1225 is at   1.625099 -4.009235 -1.661085
      ESP Fit Center 1226 is at   0.915540 -0.476519 -2.499125
      ESP Fit Center 1227 is at   0.644271 -1.488910 -2.499125
      ESP Fit Center 1228 is at   0.915540 -2.501300 -2.499125
      ESP Fit Center 1229 is at   1.656661 -3.242421 -2.499125
      ESP Fit Center 1230 is at   2.669052 -3.513691 -2.499125
      ESP Fit Center 1231 is at   3.746415 -1.488910 -3.046116
      ESP Fit Center 1232 is at   3.207734 -0.555886 -3.046116
      ESP Fit Center 1233 is at   2.130370 -0.555886 -3.046116
      ESP Fit Center 1234 is at   1.591688 -1.488910 -3.046116
      ESP Fit Center 1235 is at   2.130370 -2.421934 -3.046116
      ESP Fit Center 1236 is at   3.207734 -2.421934 -3.046116
      ESP Fit Center 1237 is at   2.669052 -1.488910 -3.236085
      ESP Fit Center 1238 is at   3.584070 -2.880898  2.772915
      ESP Fit Center 1239 is at   3.067447 -3.775715  2.567390
      ESP Fit Center 1240 is at   4.100692 -3.775715  2.567390
      ESP Fit Center 1241 is at   2.333817 -4.323766  1.982104
      ESP Fit Center 1242 is at   3.312364 -4.770654  1.982104
      ESP Fit Center 1243 is at   2.028790 -4.831157  1.106161
      ESP Fit Center 1244 is at   3.028997 -5.312831  1.106161
      ESP Fit Center 1245 is at   1.674881 -4.790086  0.072915
      ESP Fit Center 1246 is at   2.550824 -5.375373  0.072915
      ESP Fit Center 1247 is at   2.028790 -4.831157 -0.960330
      ESP Fit Center 1248 is at   3.028997 -5.312831 -0.960330
      ESP Fit Center 1249 is at   2.333817 -4.323766 -1.836273
      ESP Fit Center 1250 is at   3.312364 -4.770654 -1.836273
      ESP Fit Center 1251 is at   3.067447 -3.775715 -2.421559
      ESP Fit Center 1252 is at   4.100692 -3.775715 -2.421559
      ESP Fit Center 1253 is at   7.262043 -0.828865  1.402530
      ESP Fit Center 1254 is at   8.052658 -0.828865  0.611915
      ESP Fit Center 1255 is at   7.755705  0.182466  0.611915
      ESP Fit Center 1256 is at   6.959125  0.872706  0.611915
      ESP Fit Center 1257 is at   8.342043 -0.828865 -0.468085
      ESP Fit Center 1258 is at   8.094628  0.174937 -0.468085
      ESP Fit Center 1259 is at   7.409063  0.948780 -0.468085
      ESP Fit Center 1260 is at   8.094628 -1.832667 -0.468085
      ESP Fit Center 1261 is at   8.052658 -0.828865 -1.548085
      ESP Fit Center 1262 is at   7.755705  0.182466 -1.548085
      ESP Fit Center 1263 is at   6.959125  0.872706 -1.548085
      ESP Fit Center 1264 is at   7.755705 -1.840196 -1.548085
      ESP Fit Center 1265 is at   7.262043 -0.828865 -2.338699
      ESP Fit Center 1266 is at   6.722043  0.106443 -2.338699
      ESP Fit Center 1267 is at   3.654633  5.777414 -0.216085
      ESP Fit Center 1268 is at   2.858054  6.467654 -0.216085
      ESP Fit Center 1269 is at   1.814756  6.617658 -0.216085
      ESP Fit Center 1270 is at   3.993557  5.769885 -1.296085
      ESP Fit Center 1271 is at   3.307992  6.543728 -1.296085
      ESP Fit Center 1272 is at   2.341331  6.910334 -1.296085
      ESP Fit Center 1273 is at   1.315026  6.785718 -1.296085
      ESP Fit Center 1274 is at   3.654633  5.777414 -2.376085
      ESP Fit Center 1275 is at   2.858054  6.467654 -2.376085
      ESP Fit Center 1276 is at   1.814756  6.617658 -2.376085
      ESP Fit Center 1277 is at   2.620972  5.701390 -3.166699
      ESP Fit Center 1278 is at   1.540972  5.701390 -3.166699
      ESP Fit Center 1279 is at   6.725630  1.394118  0.294915
      ESP Fit Center 1280 is at   6.428676  2.405449  0.294915
      ESP Fit Center 1281 is at   5.632097  3.095689  0.294915
      ESP Fit Center 1282 is at   7.015015  1.394118 -0.785085
      ESP Fit Center 1283 is at   6.767600  2.397920 -0.785085
      ESP Fit Center 1284 is at   6.082035  3.171763 -0.785085
      ESP Fit Center 1285 is at   6.725630  1.394118 -1.865085
      ESP Fit Center 1286 is at   6.428676  2.405449 -1.865085
      ESP Fit Center 1287 is at   5.632097  3.095689 -1.865085
      ESP Fit Center 1288 is at   5.935015  1.394118 -2.655699
      ESP Fit Center 1289 is at   5.395015  2.329426 -2.655699
      ESP Fit Center 1290 is at  -1.002955 -1.905257 -2.075699
      ESP Fit Center 1291 is at   0.077045 -1.905257 -2.075699
      ESP Fit Center 1292 is at  -0.462955 -0.969950 -2.365085
      ESP Fit Center 1293 is at  -3.659971  1.250324  4.759530
      ESP Fit Center 1294 is at  -4.199971  0.315017  4.759530
      ESP Fit Center 1295 is at  -3.659971 -0.620291  4.759530
      ESP Fit Center 1296 is at  -3.386187  2.166591  3.968915
      ESP Fit Center 1297 is at  -4.344963  1.728733  3.968915
      ESP Fit Center 1298 is at  -4.914813  0.842030  3.968915
      ESP Fit Center 1299 is at  -4.914813 -0.211997  3.968915
      ESP Fit Center 1300 is at  -4.344963 -1.098700  3.968915
      ESP Fit Center 1301 is at  -3.885918  2.334652  2.888915
      ESP Fit Center 1302 is at  -4.736754  1.747362  2.888915
      ESP Fit Center 1303 is at  -2.652953 -2.065278  4.617530
      ESP Fit Center 1304 is at  -1.572953 -2.065278  4.617530
      ESP Fit Center 1305 is at  -3.907795 -1.656984  3.826915
      ESP Fit Center 1306 is at  -3.337945 -2.543687  3.826915
      ESP Fit Center 1307 is at  -2.379169 -2.981545  3.826915
      ESP Fit Center 1308 is at  -1.335871 -2.831542  3.826915
      ESP Fit Center 1309 is at  -0.539291 -2.141301  3.826915
      ESP Fit Center 1310 is at  -1.852594 -3.274222  2.746915
      ESP Fit Center 1311 is at  -0.885933 -2.907616  2.746915
      ESP Fit Center 1312 is at  -0.200368 -2.133773  2.746915
      ESP Fit Center 1313 is at  -4.867983  2.172309  2.369530
      ESP Fit Center 1314 is at  -4.594199  3.088576  1.578915
      ESP Fit Center 1315 is at  -5.552975  2.650718  1.578915
      ESP Fit Center 1316 is at  -5.093929  3.256636  0.498915
      ESP Fit Center 1317 is at  -5.944766  2.669346  0.498915
      ESP Fit Center 1318 is at  -4.594199  3.088576 -0.581085
      ESP Fit Center 1319 is at  -5.552975  2.650718 -0.581085
      ESP Fit Center 1320 is at  -5.377964  0.708302  3.225530
      ESP Fit Center 1321 is at  -5.917964 -0.227005  3.225530
      ESP Fit Center 1322 is at  -5.377964 -1.162313  3.225530
      ESP Fit Center 1323 is at  -6.062956  1.186711  2.434915
      ESP Fit Center 1324 is at  -6.632806  0.300008  2.434915
      ESP Fit Center 1325 is at  -6.632806 -0.754018  2.434915
      ESP Fit Center 1326 is at  -6.062956 -1.640722  2.434915
      ESP Fit Center 1327 is at  -6.935199 -0.743927  1.354915
      ESP Fit Center 1328 is at  -6.780969  1.052284  1.198530
      ESP Fit Center 1329 is at  -7.320969  0.116977  1.198530
      ESP Fit Center 1330 is at  -6.507185  1.968552  0.407915
      ESP Fit Center 1331 is at  -7.465961  1.530693  0.407915
      ESP Fit Center 1332 is at  -8.035810  0.643990  0.407915
      ESP Fit Center 1333 is at  -8.035810 -0.410036  0.407915
      ESP Fit Center 1334 is at  -7.006915  2.136612 -0.672085
      ESP Fit Center 1335 is at  -7.857752  1.549322 -0.672085
      ESP Fit Center 1336 is at  -8.338203  0.633899 -0.672085
      ESP Fit Center 1337 is at  -8.338203 -0.399945 -0.672085
      ESP Fit Center 1338 is at  -6.507185  1.968552 -1.752085
      ESP Fit Center 1339 is at  -7.465961  1.530693 -1.752085
      ESP Fit Center 1340 is at  -8.035810  0.643990 -1.752085
      ESP Fit Center 1341 is at  -4.508610  2.324247 -1.689085
      ESP Fit Center 1342 is at  -2.898355  0.179996 -2.769085
      ESP Fit Center 1343 is at  -3.195308  1.191326 -2.769085
      ESP Fit Center 1344 is at  -3.991888  1.881567 -2.769085
      ESP Fit Center 1345 is at  -5.035186  2.031570 -2.769085
      ESP Fit Center 1346 is at  -5.993962  1.593712 -2.769085
      ESP Fit Center 1347 is at  -3.688969  0.179996 -3.559699
      ESP Fit Center 1348 is at  -4.228969  1.115303 -3.559699
      ESP Fit Center 1349 is at  -5.308969  1.115303 -3.559699
      ESP Fit Center 1350 is at  -4.768969  0.179996 -3.849085
      ESP Fit Center 1351 is at  -4.486924 -4.321301  0.848530
      ESP Fit Center 1352 is at  -5.171916 -4.799710  0.057915
      ESP Fit Center 1353 is at  -4.213140 -5.237569  0.057915
      ESP Fit Center 1354 is at  -3.169842 -5.087565  0.057915
      ESP Fit Center 1355 is at  -4.712871 -5.405629 -1.022085
      ESP Fit Center 1356 is at  -3.686565 -5.530245 -1.022085
      ESP Fit Center 1357 is at  -2.719904 -5.163639 -1.022085
      ESP Fit Center 1358 is at  -2.034339 -4.389796 -1.022085
      ESP Fit Center 1359 is at  -4.213140 -5.237569 -2.102085
      ESP Fit Center 1360 is at  -3.169842 -5.087565 -2.102085
      ESP Fit Center 1361 is at  -2.373263 -4.397325 -2.102085
      ESP Fit Center 1362 is at  -3.406924 -4.321301 -2.892699
      ESP Fit Center 1363 is at  -1.515328 -1.930987 -2.979085
      ESP Fit Center 1364 is at  -1.812281 -0.919656 -2.979085
      ESP Fit Center 1365 is at  -2.608861 -0.229416 -2.979085
      ESP Fit Center 1366 is at  -2.608861 -3.632558 -2.979085
      ESP Fit Center 1367 is at  -1.812281 -2.942318 -2.979085
      ESP Fit Center 1368 is at  -2.305943 -1.930987 -3.769699
      ESP Fit Center 1369 is at  -2.845943 -0.995679 -3.769699
      ESP Fit Center 1370 is at  -2.845943 -2.866294 -3.769699
      ESP Fit Center 1371 is at  -3.385943 -1.930987 -4.059085
      ESP Fit Center 1372 is at  -1.513939 -3.181277  2.026530
      ESP Fit Center 1373 is at  -1.276857 -3.947541  1.235915
      ESP Fit Center 1374 is at  -0.480277 -3.257301  1.235915
      ESP Fit Center 1375 is at  -1.793579 -4.390221  0.155915
      ESP Fit Center 1376 is at  -0.826919 -4.023615  0.155915
      ESP Fit Center 1377 is at  -0.141353 -3.249772  0.155915
      ESP Fit Center 1378 is at  -1.276857 -3.947541 -0.924085
      ESP Fit Center 1379 is at  -0.480277 -3.257301 -0.924085
      ESP Fit Center 1380 is at  -4.597938 -2.250989  3.023530
      ESP Fit Center 1381 is at  -4.057938 -3.186296  3.023530
      ESP Fit Center 1382 is at  -2.977938 -3.186296  3.023530
      ESP Fit Center 1383 is at  -5.312780 -2.778002  2.232915
      ESP Fit Center 1384 is at  -4.742931 -3.664705  2.232915
      ESP Fit Center 1385 is at  -3.784155 -4.102563  2.232915
      ESP Fit Center 1386 is at  -2.740857 -3.952560  2.232915
      ESP Fit Center 1387 is at  -4.283885 -4.270624  1.152915
      ESP Fit Center 1388 is at  -3.257579 -4.395240  1.152915
      ESP Fit Center 1389 is at  -3.715988  3.626741  1.178915
      ESP Fit Center 1390 is at  -3.256942  4.232660  0.098915
      ESP Fit Center 1391 is at  -4.107779  3.645370  0.098915
      ESP Fit Center 1392 is at  -3.715988  3.626741 -0.981085
      ESP Fit Center 1393 is at  -3.570995  2.213025 -1.771699
      ESP Fit Center 1394 is at  -1.864996  3.233347  3.325530
      ESP Fit Center 1395 is at  -0.547915  3.999611  2.534915
      ESP Fit Center 1396 is at  -1.591213  4.149614  2.534915
      ESP Fit Center 1397 is at  -2.549989  3.711756  2.534915
      ESP Fit Center 1398 is at  -5.693940 -2.103016  2.070915
      ESP Fit Center 1399 is at  -6.773940 -2.103016  1.781530
      ESP Fit Center 1400 is at  -6.233940 -3.038324  1.781530
      ESP Fit Center 1401 is at  -7.488782 -1.576003  0.990915
      ESP Fit Center 1402 is at  -7.488782 -2.630029  0.990915
      ESP Fit Center 1403 is at  -6.918933 -3.516733  0.990915
      ESP Fit Center 1404 is at  -5.960157 -3.954591  0.990915
      ESP Fit Center 1405 is at  -7.791175 -2.619938 -0.089085
      ESP Fit Center 1406 is at  -7.310724 -3.535361 -0.089085
      ESP Fit Center 1407 is at  -6.459887 -4.122651 -0.089085
      ESP Fit Center 1408 is at  -8.147945 -1.737034 -0.135470
      ESP Fit Center 1409 is at  -8.862787 -1.210021 -0.926085
      ESP Fit Center 1410 is at  -8.862787 -2.264047 -0.926085
      ESP Fit Center 1411 is at  -8.292937 -3.150750 -0.926085
      ESP Fit Center 1412 is at  -8.684728 -0.304689 -2.006085
      ESP Fit Center 1413 is at  -9.165179 -1.220112 -2.006085
      ESP Fit Center 1414 is at  -9.165179 -2.253956 -2.006085
      ESP Fit Center 1415 is at  -8.684728 -3.169379 -2.006085
      ESP Fit Center 1416 is at  -7.334161  0.114541 -3.086085
      ESP Fit Center 1417 is at  -8.292937 -0.323317 -3.086085
      ESP Fit Center 1418 is at  -8.862787 -1.210021 -3.086085
      ESP Fit Center 1419 is at  -8.862787 -2.264047 -3.086085
      ESP Fit Center 1420 is at  -8.147945 -1.737034 -3.876699
      ESP Fit Center 1421 is at  -3.718330 -1.742015 -4.093085
      ESP Fit Center 1422 is at  -4.015284 -0.730684 -4.093085
      ESP Fit Center 1423 is at  -4.811863 -0.040444 -4.093085
      ESP Fit Center 1424 is at  -5.855161  0.109560 -4.093085
      ESP Fit Center 1425 is at  -6.813937 -0.328299 -4.093085
      ESP Fit Center 1426 is at  -4.015284 -2.753346 -4.093085
      ESP Fit Center 1427 is at  -4.508945 -1.742015 -4.883699
      ESP Fit Center 1428 is at  -5.048945 -0.806707 -4.883699
      ESP Fit Center 1429 is at  -6.128945 -0.806707 -4.883699
      ESP Fit Center 1430 is at  -6.668945 -1.742015 -4.883699
      ESP Fit Center 1431 is at  -6.128945 -2.677322 -4.883699
      ESP Fit Center 1432 is at  -5.048945 -2.677322 -4.883699
      ESP Fit Center 1433 is at  -5.588945 -1.742015 -5.173085
      ESP Fit Center 1434 is at  -6.630926 -4.164329 -0.284470
      ESP Fit Center 1435 is at  -7.315918 -4.642738 -1.075085
      ESP Fit Center 1436 is at  -6.357142 -5.080596 -1.075085
      ESP Fit Center 1437 is at  -7.707709 -4.661366 -2.155085
      ESP Fit Center 1438 is at  -6.856873 -5.248656 -2.155085
      ESP Fit Center 1439 is at  -5.830567 -5.373272 -2.155085
      ESP Fit Center 1440 is at  -4.863906 -5.006666 -2.155085
      ESP Fit Center 1441 is at  -7.315918 -4.642738 -3.235085
      ESP Fit Center 1442 is at  -6.357142 -5.080596 -3.235085
      ESP Fit Center 1443 is at  -5.313844 -4.930592 -3.235085
      ESP Fit Center 1444 is at  -4.517265 -4.240352 -3.235085
      ESP Fit Center 1445 is at  -6.630926 -4.164329 -4.025699
      ESP Fit Center 1446 is at  -5.550926 -4.164329 -4.025699
      ESP Fit Center 1447 is at   0.491050  6.730624 -0.410085
      ESP Fit Center 1448 is at  -0.552247  6.880627 -0.410085
      ESP Fit Center 1449 is at   0.940989  6.806698 -1.490085
      ESP Fit Center 1450 is at  -0.025672  7.173304 -1.490085
      ESP Fit Center 1451 is at  -1.051978  7.048688 -1.490085
      ESP Fit Center 1452 is at  -1.902814  6.461398 -1.490085
      ESP Fit Center 1453 is at   0.491050  6.730624 -2.570085
      ESP Fit Center 1454 is at  -0.552247  6.880627 -2.570085
      ESP Fit Center 1455 is at  -1.511023  6.442769 -2.570085
      ESP Fit Center 1456 is at   0.793969  5.029053 -3.360699
      ESP Fit Center 1457 is at   0.253969  5.964360 -3.360699
      ESP Fit Center 1458 is at  -0.826031  5.964360 -3.360699
      ESP Fit Center 1459 is at  -0.286031  5.029053 -3.650085
      ESP Fit Center 1460 is at  -3.388247  4.101962 -1.677085
      ESP Fit Center 1461 is at  -3.388247  3.068118 -1.677085
      ESP Fit Center 1462 is at  -2.516005  4.998756 -2.757085
      ESP Fit Center 1463 is at  -3.085855  4.112053 -2.757085
      ESP Fit Center 1464 is at  -3.085855  3.058027 -2.757085
      ESP Fit Center 1465 is at  -2.516005  2.171323 -2.757085
      ESP Fit Center 1466 is at  -1.557229  1.733465 -2.757085
      ESP Fit Center 1467 is at  -1.831013  4.520347 -3.547699
      ESP Fit Center 1468 is at  -2.371013  3.585040 -3.547699
      ESP Fit Center 1469 is at  -1.831013  2.649732 -3.547699
      ESP Fit Center 1470 is at  -0.751013  2.649732 -3.547699
      ESP Fit Center 1471 is at  -1.291013  3.585040 -3.837085
      ESP Fit Center 1472 is at   0.008978  4.322043  1.792530
      ESP Fit Center 1473 is at  -0.531022  5.257350  1.792530
      ESP Fit Center 1474 is at  -1.611022  5.257350  1.792530
      ESP Fit Center 1475 is at  -2.151022  4.322043  1.792530
      ESP Fit Center 1476 is at  -0.293941  6.023614  1.001915
      ESP Fit Center 1477 is at  -1.337238  6.173617  1.001915
      ESP Fit Center 1478 is at  -2.296014  5.735759  1.001915
      ESP Fit Center 1479 is at  -2.865864  4.849056  1.001915
      ESP Fit Center 1480 is at  -1.836969  6.341678 -0.078085
      ESP Fit Center 1481 is at  -2.687805  5.754388 -0.078085
      ESP Fit Center 1482 is at  -3.168257  4.838965 -0.078085
      ESP Fit Center 1483 is at   8.634081 -3.771861 -0.891085
      ESP Fit Center 1484 is at   8.386666 -2.768059 -0.891085
      ESP Fit Center 1485 is at   7.701101 -5.549506 -0.891085
      ESP Fit Center 1486 is at   8.386666 -4.775663 -0.891085
      ESP Fit Center 1487 is at   8.344696 -3.771861 -1.971085
      ESP Fit Center 1488 is at   8.047742 -2.760530 -1.971085
      ESP Fit Center 1489 is at   7.251162 -2.070290 -1.971085
      ESP Fit Center 1490 is at   6.207865 -5.623436 -1.971085
      ESP Fit Center 1491 is at   7.251162 -5.473432 -1.971085
      ESP Fit Center 1492 is at   8.047742 -4.783192 -1.971085
      ESP Fit Center 1493 is at   7.554081 -3.771861 -2.761699
      ESP Fit Center 1494 is at   7.014081 -2.836554 -2.761699
      ESP Fit Center 1495 is at   5.934081 -2.836554 -2.761699
      ESP Fit Center 1496 is at   5.394081 -3.771861 -2.761699
      ESP Fit Center 1497 is at   5.934081 -4.707169 -2.761699
      ESP Fit Center 1498 is at   7.014081 -4.707169 -2.761699
      ESP Fit Center 1499 is at   6.474081 -3.771861 -3.051085
      ESP Fit Center 1500 is at   6.594077 -3.488860  3.010915
      ESP Fit Center 1501 is at   7.674077 -3.488860  2.721530
      ESP Fit Center 1502 is at   7.134077 -2.553552  2.721530
      ESP Fit Center 1503 is at   6.054077 -2.553552  2.721530
      ESP Fit Center 1504 is at   5.514077 -3.488860  2.721530
      ESP Fit Center 1505 is at   6.054077 -4.424167  2.721530
      ESP Fit Center 1506 is at   7.134077 -4.424167  2.721530
      ESP Fit Center 1507 is at   8.464692 -3.488860  1.930915
      ESP Fit Center 1508 is at   8.167739 -2.477529  1.930915
      ESP Fit Center 1509 is at   7.371159 -1.787288  1.930915
      ESP Fit Center 1510 is at   7.371159 -5.190431  1.930915
      ESP Fit Center 1511 is at   8.167739 -4.500190  1.930915
      ESP Fit Center 1512 is at   8.754077 -3.488860  0.850915
      ESP Fit Center 1513 is at   8.506662 -2.485058  0.850915
      ESP Fit Center 1514 is at   7.821097 -1.711214  0.850915
      ESP Fit Center 1515 is at   8.506662 -4.492662  0.850915
      ESP Fit Center 1516 is at   4.306092 -4.629875  2.092530
      ESP Fit Center 1517 is at   4.846092 -5.565182  2.092530
      ESP Fit Center 1518 is at   5.926092 -5.565182  2.092530
      ESP Fit Center 1519 is at   4.161100 -6.043591  1.301915
      ESP Fit Center 1520 is at   5.119876 -6.481450  1.301915
      ESP Fit Center 1521 is at   6.163173 -6.331446  1.301915
      ESP Fit Center 1522 is at   3.769309 -6.062220  0.221915
      ESP Fit Center 1523 is at   4.620145 -6.649510  0.221915
      ESP Fit Center 1524 is at   5.646451 -6.774126  0.221915
      ESP Fit Center 1525 is at   6.613112 -6.407520  0.221915
      ESP Fit Center 1526 is at   4.161100 -6.043591 -0.858085
      ESP Fit Center 1527 is at   5.119876 -6.481450 -0.858085
      ESP Fit Center 1528 is at   6.163173 -6.331446 -0.858085
      ESP Fit Center 1529 is at   4.846092 -5.565182 -1.648699
      ESP Fit Center 1530 is at   4.867019 -3.681869  2.851993
      ESP Fit Center 1531 is at   5.380050 -4.570463  2.851993
      ESP Fit Center 1532 is at   6.694151 -5.435969  2.331049
      ESP Fit Center 1533 is at   7.631532 -5.612615  1.532915
      ESP Fit Center 1534 is at   7.209980 -6.326560  0.553860
      ESP Fit Center 1535 is at   8.076425 -5.672251  0.553860
      ESP Fit Center 1536 is at   8.647997 -4.749129  0.553860
      ESP Fit Center 1537 is at   8.847503 -3.681869 -0.488029
      ESP Fit Center 1538 is at   8.647997 -2.614608 -0.488029
      ESP Fit Center 1539 is at   7.209980 -6.326560 -0.488029
      ESP Fit Center 1540 is at   8.076425 -5.672251 -0.488029
      ESP Fit Center 1541 is at   8.647997 -4.749129 -0.488029
      ESP Fit Center 1542 is at   6.695929 -6.152786 -1.467085
      ESP Fit Center 1543 is at   4.630271 -5.139228 -2.265218
      ESP Fit Center 1544 is at   5.618645 -5.590603 -2.265218
      ESP Fit Center 1545 is at   4.877066 -2.585882  2.924915
      ESP Fit Center 1546 is at   5.390096 -1.697287  2.743993
      ESP Fit Center 1547 is at   4.364036 -3.474476 -2.894162
      ESP Fit Center 1548 is at   4.877066 -2.585882 -3.075085
      ESP Fit Center 1549 is at   5.181048 -1.223878  2.673915
      ESP Fit Center 1550 is at   6.207109 -1.223878  2.492993
      ESP Fit Center 1551 is at   5.694079 -0.335283  2.492993
      ESP Fit Center 1552 is at   7.109411 -1.223878  1.972049
      ESP Fit Center 1553 is at   6.803291 -0.181326  1.972049
      ESP Fit Center 1554 is at   5.982119  0.530223  1.972049
      ESP Fit Center 1555 is at   6.207109 -1.223878 -3.145162
      ESP Fit Center 1556 is at   5.694079 -0.335283 -3.145162
      ESP Fit Center 1557 is at   4.668018 -2.112472 -3.145162
      ESP Fit Center 1558 is at   5.694079 -2.112472 -3.145162
      ESP Fit Center 1559 is at   5.181048 -1.223878 -3.326085
      ESP Fit Center 1560 is at   4.547069  0.432702  2.452993
      ESP Fit Center 1561 is at   4.034039 -0.455892 -3.366085
      ESP Fit Center 1562 is at   2.859011  1.690093  2.343915
      ESP Fit Center 1563 is at   3.372042  2.578687  2.162993
      ESP Fit Center 1564 is at   2.345981  2.578687  2.162993
      ESP Fit Center 1565 is at   1.832951  1.690093 -3.475162
      ESP Fit Center 1566 is at   2.345981  0.801498 -3.475162
      ESP Fit Center 1567 is at   2.859011  1.690093 -3.656085
      ESP Fit Center 1568 is at   1.938985  3.718081  1.965915
      ESP Fit Center 1569 is at   2.452016  4.606675  1.784993
      ESP Fit Center 1570 is at   1.425955  4.606675  1.784993
      ESP Fit Center 1571 is at   2.740056  5.472182  1.264049
      ESP Fit Center 1572 is at   1.664551  5.626816  1.264049
      ESP Fit Center 1573 is at   3.677438  5.648828  0.465915
      ESP Fit Center 1574 is at   3.561228  4.760633 -3.332218
      ESP Fit Center 1575 is at   2.452016  4.606675 -3.853162
      ESP Fit Center 1576 is at   1.425955  4.606675 -3.853162
      ESP Fit Center 1577 is at   0.912925  3.718081 -3.853162
      ESP Fit Center 1578 is at   1.425955  2.829487 -3.853162
      ESP Fit Center 1579 is at   1.938985  3.718081 -4.034085
      ESP Fit Center 1580 is at   1.675052  3.226065  1.992993
      ESP Fit Center 1581 is at   1.162022  4.114659  1.992993
      ESP Fit Center 1582 is at   0.135962  2.337470 -3.645162
      ESP Fit Center 1583 is at   1.162022  2.337470 -3.645162
      ESP Fit Center 1584 is at   0.648992  3.226065 -3.826085
      ESP Fit Center 1585 is at   3.983021  0.906107  2.399915
      ESP Fit Center 1586 is at   5.009082  0.906107  2.218993
      ESP Fit Center 1587 is at   4.496052  1.794702  2.218993
      ESP Fit Center 1588 is at   5.911384  0.906107  1.698049
      ESP Fit Center 1589 is at   5.605263  1.948659  1.698049
      ESP Fit Center 1590 is at   4.784092  2.660208  1.698049
      ESP Fit Center 1591 is at   5.911384  0.906107 -2.898218
      ESP Fit Center 1592 is at   5.009082  0.906107 -3.419162
      ESP Fit Center 1593 is at   4.496052  1.794702 -3.419162
      ESP Fit Center 1594 is at   3.469991  0.017513 -3.419162
      ESP Fit Center 1595 is at   4.496052  0.017513 -3.419162
      ESP Fit Center 1596 is at   3.983021  0.906107 -3.600085
      ESP Fit Center 1597 is at   0.233052  5.837150  1.277049
      ESP Fit Center 1598 is at   0.234831  6.553966  0.478915
      ESP Fit Center 1599 is at  -0.839592  6.666893  0.478915
      ESP Fit Center 1600 is at  -1.376535  6.924689 -0.500140
      ESP Fit Center 1601 is at  -2.348457  6.440730 -0.500140
      ESP Fit Center 1602 is at  -3.079920  5.638353 -0.500140
      ESP Fit Center 1603 is at  -3.472138  4.625923 -0.500140
      ESP Fit Center 1604 is at  -2.348457  6.440730 -1.542029
      ESP Fit Center 1605 is at  -3.079920  5.638353 -1.542029
      ESP Fit Center 1606 is at  -3.472138  4.625923 -1.542029
      ESP Fit Center 1607 is at  -2.669907  5.610160 -2.521085
      ESP Fit Center 1608 is at  -1.830828  5.540408 -3.319218
      ESP Fit Center 1609 is at   0.458041  4.083049 -3.840162
      ESP Fit Center 1610 is at  -1.081049  4.971643 -3.840162
      ESP Fit Center 1611 is at  -0.054989  3.194455 -3.840162
      ESP Fit Center 1612 is at  -0.568019  4.083049 -4.021085
      ESP Fit Center 1613 is at  -0.432051  1.866064 -3.296162
      ESP Fit Center 1614 is at   0.080979  0.977470 -3.296162
      ESP Fit Center 1615 is at  -3.405776 -1.508330  4.848049
      ESP Fit Center 1616 is at  -4.244854 -1.578082  4.049915
      ESP Fit Center 1617 is at  -2.955225  1.138325  5.651049
      ESP Fit Center 1618 is at  -2.955225  0.051760  5.651049
      ESP Fit Center 1619 is at  -2.367784 -0.862317  5.651049
      ESP Fit Center 1620 is at  -1.379409 -1.313693  5.651049
      ESP Fit Center 1621 is at  -3.206863  2.122153  4.852915
      ESP Fit Center 1622 is at  -0.302125 -1.875875  4.852915
      ESP Fit Center 1623 is at  -2.885413  2.952723  3.873860
      ESP Fit Center 1624 is at   0.211925 -2.049649  3.873860
      ESP Fit Center 1625 is at   0.211925 -2.049649  2.831971
      ESP Fit Center 1626 is at  -5.617778  1.603360  2.729049
      ESP Fit Center 1627 is at  -6.456857  1.673112  1.930915
      ESP Fit Center 1628 is at  -4.933365  2.719810 -1.293029
      ESP Fit Center 1629 is at  -6.014481  2.619630 -1.293029
      ESP Fit Center 1630 is at  -6.505002  2.027990 -2.272085
      ESP Fit Center 1631 is at  -6.468773  1.235349 -3.070218
      ESP Fit Center 1632 is at   3.057995  2.985095  2.046915
      ESP Fit Center 1633 is at   4.084055  2.985095  1.865993
      ESP Fit Center 1634 is at   3.571025  3.873690  1.865993
      ESP Fit Center 1635 is at   4.986358  2.985095  1.345049
      ESP Fit Center 1636 is at   4.680237  4.027647  1.345049
      ESP Fit Center 1637 is at   3.859066  4.739196  1.345049
      ESP Fit Center 1638 is at   5.431456  4.041828  0.546915
      ESP Fit Center 1639 is at   4.796447  4.915842  0.546915
      ESP Fit Center 1640 is at   3.860845  5.456013  0.546915
      ESP Fit Center 1641 is at   5.812912  4.052356 -0.432140
      ESP Fit Center 1642 is at   5.241340  4.975477 -0.432140
      ESP Fit Center 1643 is at   4.374895  5.629787 -0.432140
      ESP Fit Center 1644 is at   5.812912  4.052356 -1.474029
      ESP Fit Center 1645 is at   5.241340  4.975477 -1.474029
      ESP Fit Center 1646 is at   4.374895  5.629787 -1.474029
      ESP Fit Center 1647 is at   5.656071  2.985095 -2.453085
      ESP Fit Center 1648 is at   5.431456  4.041828 -2.453085
      ESP Fit Center 1649 is at   4.796447  4.915842 -2.453085
      ESP Fit Center 1650 is at   4.986358  2.985095 -3.251218
      ESP Fit Center 1651 is at   4.680237  4.027647 -3.251218
      ESP Fit Center 1652 is at   3.859066  4.739196 -3.251218
      ESP Fit Center 1653 is at   4.084055  2.985095 -3.772162
      ESP Fit Center 1654 is at   3.571025  3.873690 -3.772162
      ESP Fit Center 1655 is at   2.544965  2.096501 -3.772162
      ESP Fit Center 1656 is at   3.571025  2.096501 -3.772162
      ESP Fit Center 1657 is at   3.057995  2.985095 -3.953085
      ESP Fit Center 1658 is at  -8.162828 -3.667132 -0.615085
      ESP Fit Center 1659 is at  -8.572841 -3.695324 -1.594140
      ESP Fit Center 1660 is at  -8.572841 -3.695324 -2.636029
      ESP Fit Center 1661 is at  -7.359978  0.109979 -3.615085
      ESP Fit Center 1662 is at  -8.602242 -2.680191 -3.615085
      ESP Fit Center 1663 is at  -8.162828 -3.667132 -3.615085
      ESP Fit Center 1664 is at  -4.322488 -4.070768 -3.615085
      ESP Fit Center 1665 is at  -7.323749 -0.682662 -4.413218
      ESP Fit Center 1666 is at  -7.911190 -1.596738 -4.413218
      ESP Fit Center 1667 is at  -7.911190 -2.683304 -4.413218
      ESP Fit Center 1668 is at  -7.323749 -3.597380 -4.413218
      ESP Fit Center 1669 is at  -6.335375 -4.048756 -4.413218
      ESP Fit Center 1670 is at  -5.259869 -3.894121 -4.413218
      ESP Fit Center 1671 is at  -7.087000 -2.140021 -4.934162
      ESP Fit Center 1672 is at  -6.573970 -3.028615 -4.934162
      ESP Fit Center 1673 is at  -1.663593 -4.288375 -1.501029
      ESP Fit Center 1674 is at  -2.108486 -4.228740 -2.480085
      ESP Fit Center 1675 is at  -1.473477 -3.354725 -2.480085
      ESP Fit Center 1676 is at  -4.121372 -4.206728 -3.278218
      ESP Fit Center 1677 is at  -3.045867 -4.052093 -3.278218
      ESP Fit Center 1678 is at  -2.260094 -4.304900  1.733915
      ESP Fit Center 1679 is at  -2.790344 -4.775803  0.754860
      ESP Fit Center 1680 is at  -2.985027  3.935035  2.118915
      ESP Fit Center 1681 is at  -3.787876  3.212146  2.118915
      ESP Fit Center 1682 is at  -2.455233  0.646766 -2.556218
      ESP Fit Center 1683 is at  -0.879417 -0.718686 -2.556218
      ESP Fit Center 1684 is at   0.196089 -0.564052 -2.556218
      ESP Fit Center 1685 is at  -1.631043  1.190049 -3.077162
      ESP Fit Center 1686 is at  -1.118013  0.301454 -3.077162
      ESP Fit Center 1687 is at  -0.091952  0.301454 -3.077162
      ESP Fit Center 1688 is at  -0.604982  1.190049 -3.258085
      ESP Fit Center 1689 is at  -0.257982  1.147053  6.963915
      ESP Fit Center 1690 is at   0.768079  1.147053  6.782993
      ESP Fit Center 1691 is at   0.255048  2.035647  6.782993
      ESP Fit Center 1692 is at  -0.771012  2.035647  6.782993
      ESP Fit Center 1693 is at  -1.284042  1.147053  6.782993
      ESP Fit Center 1694 is at  -0.771012  0.258459  6.782993
      ESP Fit Center 1695 is at   0.255048  0.258459  6.782993
      ESP Fit Center 1696 is at   1.670381  1.147053  6.262049
      ESP Fit Center 1697 is at   1.364260  2.189605  6.262049
      ESP Fit Center 1698 is at   0.543089  2.901154  6.262049
      ESP Fit Center 1699 is at  -0.532416  3.055788  6.262049
      ESP Fit Center 1700 is at  -1.520791  2.604412  6.262049
      ESP Fit Center 1701 is at  -2.108232  1.690336  6.262049
      ESP Fit Center 1702 is at  -2.108232  0.603770  6.262049
      ESP Fit Center 1703 is at  -1.520791 -0.310306  6.262049
      ESP Fit Center 1704 is at  -0.532416 -0.761682  6.262049
      ESP Fit Center 1705 is at   0.543089 -0.607047  6.262049
      ESP Fit Center 1706 is at   1.364260  0.104501  6.262049
      ESP Fit Center 1707 is at   2.340094  1.147053  5.463915
      ESP Fit Center 1708 is at   2.115479  2.203786  5.463915
      ESP Fit Center 1709 is at   1.480471  3.077800  5.463915
      ESP Fit Center 1710 is at   0.544868  3.617970  5.463915
      ESP Fit Center 1711 is at  -0.529555  3.730897  5.463915
      ESP Fit Center 1712 is at  -1.557020  3.397053  5.463915
      ESP Fit Center 1713 is at  -2.359870  2.674164  5.463915
      ESP Fit Center 1714 is at   0.544868 -1.323864  5.463915
      ESP Fit Center 1715 is at   1.480471 -0.783694  5.463915
      ESP Fit Center 1716 is at   2.115479  0.090320  5.463915
      ESP Fit Center 1717 is at   2.696442  1.147053  4.484860
      ESP Fit Center 1718 is at   2.496936  2.214314  4.484860
      ESP Fit Center 1719 is at   1.925363  3.137435  4.484860
      ESP Fit Center 1720 is at   1.058918  3.791744  4.484860
      ESP Fit Center 1721 is at   0.014618  4.088873  4.484860
      ESP Fit Center 1722 is at  -1.066498  3.988693  4.484860
      ESP Fit Center 1723 is at  -2.038420  3.504734  4.484860
      ESP Fit Center 1724 is at   1.058918 -1.497638  4.484860
      ESP Fit Center 1725 is at   1.925363 -0.843329  4.484860
      ESP Fit Center 1726 is at   2.496936  0.079792  4.484860
      ESP Fit Center 1727 is at   2.696442  1.147053  3.442971
      ESP Fit Center 1728 is at   2.496936  2.214314  3.442971
      ESP Fit Center 1729 is at   1.925363  3.137435  3.442971
      ESP Fit Center 1730 is at   1.058918  3.791744  3.442971
      ESP Fit Center 1731 is at   0.014618  4.088873  3.442971
      ESP Fit Center 1732 is at  -1.066498  3.988693  3.442971
      ESP Fit Center 1733 is at  -2.038420  3.504734  3.442971
      ESP Fit Center 1734 is at   1.058918 -1.497638  3.442971
      ESP Fit Center 1735 is at   1.925363 -0.843329  3.442971
      ESP Fit Center 1736 is at   2.496936  0.079792  3.442971
      ESP Fit Center 1737 is at   2.115479  2.203786  2.463915
      ESP Fit Center 1738 is at   1.480471  3.077800  2.463915
      ESP Fit Center 1739 is at   0.544868  3.617970  2.463915
      ESP Fit Center 1740 is at  -2.501932  0.509612 -2.598162
      ESP Fit Center 1741 is at   2.712079  1.091078  2.415993
      ESP Fit Center 1742 is at   2.199049  1.979672  2.415993
      ESP Fit Center 1743 is at   0.423210 -0.366282 -2.701218
      ESP Fit Center 1744 is at   1.172989  0.202483 -3.222162
      ESP Fit Center 1745 is at   2.199049  0.202483 -3.222162
      ESP Fit Center 1746 is at   1.686019  1.091078 -3.403085
      ESP Fit Center 1747 is at   2.669052 -1.488910  3.413915
      ESP Fit Center 1748 is at   3.750611 -1.488910  3.242613
      ESP Fit Center 1749 is at   3.209832 -0.552252  3.242613
      ESP Fit Center 1750 is at   2.128272 -0.552252  3.242613
      ESP Fit Center 1751 is at   1.587492 -1.488910  3.242613
      ESP Fit Center 1752 is at   2.128272 -2.425568  3.242613
      ESP Fit Center 1753 is at   3.209832 -2.425568  3.242613
      ESP Fit Center 1754 is at   4.726300 -1.488910  2.745475
      ESP Fit Center 1755 is at   4.450681 -0.460285  2.745475
      ESP Fit Center 1756 is at   3.697676  0.292720  2.745475
      ESP Fit Center 1757 is at   2.669052  0.568339  2.745475
      ESP Fit Center 1758 is at   0.887422 -2.517534  2.745475
      ESP Fit Center 1759 is at   1.640428 -3.270539  2.745475
      ESP Fit Center 1760 is at   0.666837 -3.491125  1.971164
      ESP Fit Center 1761 is at   1.585461 -4.104929  1.971164
      ESP Fit Center 1762 is at   0.414586 -3.937912  0.995475
      ESP Fit Center 1763 is at   0.103370 -3.869514 -0.086085
      ESP Fit Center 1764 is at   0.919052 -4.519999 -0.086085
      ESP Fit Center 1765 is at   0.414586 -3.937912 -1.167644
      ESP Fit Center 1766 is at   1.331929 -4.537242 -1.167644
      ESP Fit Center 1767 is at   0.053032 -2.572501 -2.143333
      ESP Fit Center 1768 is at   0.666837 -3.491125 -2.143333
      ESP Fit Center 1769 is at   1.585461 -4.104929 -2.143333
      ESP Fit Center 1770 is at   0.887422 -0.460285 -2.917644
      ESP Fit Center 1771 is at   0.611803 -1.488910 -2.917644
      ESP Fit Center 1772 is at   0.887422 -2.517534 -2.917644
      ESP Fit Center 1773 is at   1.640428 -3.270539 -2.917644
      ESP Fit Center 1774 is at   2.669052 -3.546158 -2.917644
      ESP Fit Center 1775 is at   3.697676 -3.270539 -2.917644
      ESP Fit Center 1776 is at   3.750611 -1.488910 -3.414782
      ESP Fit Center 1777 is at   3.209832 -0.552252 -3.414782
      ESP Fit Center 1778 is at   2.128272 -0.552252 -3.414782
      ESP Fit Center 1779 is at   1.587492 -1.488910 -3.414782
      ESP Fit Center 1780 is at   2.128272 -2.425568 -3.414782
      ESP Fit Center 1781 is at   3.209832 -2.425568 -3.414782
      ESP Fit Center 1782 is at   2.669052 -1.488910 -3.586085
      ESP Fit Center 1783 is at   3.584070 -2.880898  3.072915
      ESP Fit Center 1784 is at   3.071039 -3.769492  2.891993
      ESP Fit Center 1785 is at   4.097100 -3.769492  2.891993
      ESP Fit Center 1786 is at   2.321260 -4.338257  2.371049
      ESP Fit Center 1787 is at   3.309635 -4.789633  2.371049
      ESP Fit Center 1788 is at   1.482182 -4.408009  1.572915
      ESP Fit Center 1789 is at   2.285031 -5.130898  1.572915
      ESP Fit Center 1790 is at   3.312497 -5.464742  1.572915
      ESP Fit Center 1791 is at   1.803632 -5.238579  0.593860
      ESP Fit Center 1792 is at   2.775553 -5.722538  0.593860
      ESP Fit Center 1793 is at   1.803632 -5.238579 -0.448029
      ESP Fit Center 1794 is at   2.775553 -5.722538 -0.448029
      ESP Fit Center 1795 is at   2.285031 -5.130898 -1.427085
      ESP Fit Center 1796 is at   3.312497 -5.464742 -1.427085
      ESP Fit Center 1797 is at   2.321260 -4.338257 -2.225218
      ESP Fit Center 1798 is at   3.309635 -4.789633 -2.225218
      ESP Fit Center 1799 is at   3.071039 -3.769492 -2.746162
      ESP Fit Center 1800 is at   4.097100 -3.769492 -2.746162
      ESP Fit Center 1801 is at   8.058439 -0.828865  1.028291
      ESP Fit Center 1802 is at   7.760568  0.185591  1.028291
      ESP Fit Center 1803 is at   6.961526  0.877965  1.028291
      ESP Fit Center 1804 is at   8.521870 -0.828865  0.065966
      ESP Fit Center 1805 is at   8.290155  0.186348  0.065966
      ESP Fit Center 1806 is at   7.640902  1.000486  0.065966
      ESP Fit Center 1807 is at   8.290155 -1.844078  0.065966
      ESP Fit Center 1808 is at   8.521870 -0.828865 -1.002135
      ESP Fit Center 1809 is at   8.290155  0.186348 -1.002135
      ESP Fit Center 1810 is at   7.640902  1.000486 -1.002135
      ESP Fit Center 1811 is at   8.290155 -1.844078 -1.002135
      ESP Fit Center 1812 is at   8.058439 -0.828865 -1.964460
      ESP Fit Center 1813 is at   7.760568  0.185591 -1.964460
      ESP Fit Center 1814 is at   6.961526  0.877965 -1.964460
      ESP Fit Center 1815 is at   7.760568 -1.843321 -1.964460
      ESP Fit Center 1816 is at   7.223364 -0.828865 -2.630410
      ESP Fit Center 1817 is at   6.702704  0.072946 -2.630410
      ESP Fit Center 1818 is at   2.860455  6.472912  0.200291
      ESP Fit Center 1819 is at   1.813933  6.623379  0.200291
      ESP Fit Center 1820 is at   4.189083  5.781296 -0.762034
      ESP Fit Center 1821 is at   3.539830  6.595433 -0.762034
      ESP Fit Center 1822 is at   2.601633  7.047246 -0.762034
      ESP Fit Center 1823 is at   1.560312  7.047246 -0.762034
      ESP Fit Center 1824 is at   4.189083  5.781296 -1.830135
      ESP Fit Center 1825 is at   3.539830  6.595433 -1.830135
      ESP Fit Center 1826 is at   2.601633  7.047246 -1.830135
      ESP Fit Center 1827 is at   1.560312  7.047246 -1.830135
      ESP Fit Center 1828 is at   3.659497  5.780539 -2.792460
      ESP Fit Center 1829 is at   2.860455  6.472912 -2.792460
      ESP Fit Center 1830 is at   1.813933  6.623379 -2.792460
      ESP Fit Center 1831 is at   2.601633  5.667893 -3.458410
      ESP Fit Center 1832 is at   1.560312  5.667893 -3.458410
      ESP Fit Center 1833 is at   6.731411  1.394118  0.711291
      ESP Fit Center 1834 is at   6.433539  2.408574  0.711291
      ESP Fit Center 1835 is at   5.634498  3.100948  0.711291
      ESP Fit Center 1836 is at   7.194842  1.394118 -0.251034
      ESP Fit Center 1837 is at   6.963126  2.409331 -0.251034
      ESP Fit Center 1838 is at   6.313873  3.223469 -0.251034
      ESP Fit Center 1839 is at   7.194842  1.394118 -1.319135
      ESP Fit Center 1840 is at   6.963126  2.409331 -1.319135
      ESP Fit Center 1841 is at   6.313873  3.223469 -1.319135
      ESP Fit Center 1842 is at   6.731411  1.394118 -2.281460
      ESP Fit Center 1843 is at   6.433539  2.408574 -2.281460
      ESP Fit Center 1844 is at   5.896336  1.394118 -2.947410
      ESP Fit Center 1845 is at   5.375676  2.295929 -2.947410
      ESP Fit Center 1846 is at  -0.983615 -1.871760 -2.367410
      ESP Fit Center 1847 is at  -0.462955 -0.969950 -2.605085
      ESP Fit Center 1848 is at  -3.640632  1.216827  5.051241
      ESP Fit Center 1849 is at  -4.161292  0.315017  5.051241
      ESP Fit Center 1850 is at  -4.348749  1.733102  4.385291
      ESP Fit Center 1851 is at  -4.920360  0.843658  4.385291
      ESP Fit Center 1852 is at  -4.920360 -0.213625  4.385291
      ESP Fit Center 1853 is at  -4.348749 -1.103069  4.385291
      ESP Fit Center 1854 is at  -3.640632  2.596179  3.422966
      ESP Fit Center 1855 is at  -4.578829  2.144367  3.422966
      ESP Fit Center 1856 is at  -5.228082  1.330229  3.422966
      ESP Fit Center 1857 is at  -2.633613 -2.031781  4.909241
      ESP Fit Center 1858 is at  -1.592292 -2.031781  4.909241
      ESP Fit Center 1859 is at  -3.341731 -2.548056  4.243291
      ESP Fit Center 1860 is at  -2.379992 -2.987267  4.243291
      ESP Fit Center 1861 is at  -1.333470 -2.836800  4.243291
      ESP Fit Center 1862 is at  -2.633613 -3.411133  3.280966
      ESP Fit Center 1863 is at  -1.592292 -3.411133  3.280966
      ESP Fit Center 1864 is at  -0.654094 -2.959321  3.280966
      ESP Fit Center 1865 is at  -0.654094 -2.959321  2.212865
      ESP Fit Center 1866 is at  -4.848643  2.138812  2.661241
      ESP Fit Center 1867 is at  -4.595022  3.094298  1.995291
      ESP Fit Center 1868 is at  -5.556761  2.655086  1.995291
      ESP Fit Center 1869 is at  -4.848643  3.518164  1.032966
      ESP Fit Center 1870 is at  -5.786841  3.066352  1.032966
      ESP Fit Center 1871 is at  -6.436094  2.252214  1.032966
      ESP Fit Center 1872 is at  -4.848643  3.518164 -0.035135
      ESP Fit Center 1873 is at  -5.786841  3.066352 -0.035135
      ESP Fit Center 1874 is at  -4.595022  3.094298 -0.997460
      ESP Fit Center 1875 is at  -5.879285 -0.227005  3.517241
      ESP Fit Center 1876 is at  -5.358625 -1.128816  3.517241
      ESP Fit Center 1877 is at  -6.066742  1.191080  2.851291
      ESP Fit Center 1878 is at  -6.638353  0.301636  2.851291
      ESP Fit Center 1879 is at  -6.638353 -0.755647  2.851291
      ESP Fit Center 1880 is at  -6.066742 -1.645090  2.851291
      ESP Fit Center 1881 is at  -6.946076  0.788208  1.888966
      ESP Fit Center 1882 is at  -7.177791 -0.227005  1.888966
      ESP Fit Center 1883 is at  -6.946076 -1.242218  1.888966
      ESP Fit Center 1884 is at  -7.282290  0.116977  1.490241
      ESP Fit Center 1885 is at  -7.469746  1.535062  0.824291
      ESP Fit Center 1886 is at  -8.041357  0.645619  0.824291
      ESP Fit Center 1887 is at  -8.041357 -0.411665  0.824291
      ESP Fit Center 1888 is at  -6.761629  2.398139 -0.138034
      ESP Fit Center 1889 is at  -7.699827  1.946327 -0.138034
      ESP Fit Center 1890 is at  -8.349080  1.132190 -0.138034
      ESP Fit Center 1891 is at  -8.580796  0.116977 -0.138034
      ESP Fit Center 1892 is at  -8.349080 -0.898236 -0.138034
      ESP Fit Center 1893 is at  -6.761629  2.398139 -1.206135
      ESP Fit Center 1894 is at  -7.699827  1.946327 -1.206135
      ESP Fit Center 1895 is at  -8.349080  1.132190 -1.206135
      ESP Fit Center 1896 is at  -8.580796  0.116977 -1.206135
      ESP Fit Center 1897 is at  -7.469746  1.535062 -2.168460
      ESP Fit Center 1898 is at  -8.041357  0.645619 -2.168460
      ESP Fit Center 1899 is at  -3.310111  2.009346 -2.223135
      ESP Fit Center 1900 is at  -4.248309  2.461158 -2.223135
      ESP Fit Center 1901 is at  -5.289630  2.461158 -2.223135
      ESP Fit Center 1902 is at  -2.892574  0.179996 -3.185460
      ESP Fit Center 1903 is at  -3.190445  1.194452 -3.185460
      ESP Fit Center 1904 is at  -3.989487  1.886825 -3.185460
      ESP Fit Center 1905 is at  -5.036008  2.037292 -3.185460
      ESP Fit Center 1906 is at  -5.997747  1.598081 -3.185460
      ESP Fit Center 1907 is at  -3.727648  0.179996 -3.851410
      ESP Fit Center 1908 is at  -4.248309  1.081806 -3.851410
      ESP Fit Center 1909 is at  -5.289630  1.081806 -3.851410
      ESP Fit Center 1910 is at  -5.175702 -4.804079  0.474291
      ESP Fit Center 1911 is at  -4.213963 -5.243291  0.474291
      ESP Fit Center 1912 is at  -3.167441 -5.092823  0.474291
      ESP Fit Center 1913 is at  -5.405782 -5.215344 -0.488034
      ESP Fit Center 1914 is at  -4.467584 -5.667157 -0.488034
      ESP Fit Center 1915 is at  -3.426263 -5.667157 -0.488034
      ESP Fit Center 1916 is at  -2.488066 -5.215344 -0.488034
      ESP Fit Center 1917 is at  -4.467584 -5.667157 -1.556135
      ESP Fit Center 1918 is at  -3.426263 -5.667157 -1.556135
      ESP Fit Center 1919 is at  -2.488066 -5.215344 -1.556135
      ESP Fit Center 1920 is at  -4.213963 -5.243291 -2.518460
      ESP Fit Center 1921 is at  -3.167441 -5.092823 -2.518460
      ESP Fit Center 1922 is at  -1.046116 -1.930987 -2.433135
      ESP Fit Center 1923 is at  -1.277831 -2.946200 -2.433135
      ESP Fit Center 1924 is at  -1.509547 -1.930987 -3.395460
      ESP Fit Center 1925 is at  -1.807418 -0.916531 -3.395460
      ESP Fit Center 1926 is at  -2.606460 -0.224157 -3.395460
      ESP Fit Center 1927 is at  -2.606460 -3.637816 -3.395460
      ESP Fit Center 1928 is at  -1.807418 -2.945443 -3.395460
      ESP Fit Center 1929 is at  -2.344622 -1.930987 -4.061410
      ESP Fit Center 1930 is at  -2.865282 -1.029176 -4.061410
      ESP Fit Center 1931 is at  -2.865282 -2.832797 -4.061410
      ESP Fit Center 1932 is at  -3.385943 -1.930987 -4.299085
      ESP Fit Center 1933 is at  -1.274456 -3.952799  1.652291
      ESP Fit Center 1934 is at  -0.475414 -3.260426  1.652291
      ESP Fit Center 1935 is at  -1.533278 -4.527132  0.689966
      ESP Fit Center 1936 is at  -0.595080 -4.075320  0.689966
      ESP Fit Center 1937 is at  -1.533278 -4.527132 -0.378135
      ESP Fit Center 1938 is at  -0.595080 -4.075320 -0.378135
      ESP Fit Center 1939 is at  -1.274456 -3.952799 -1.340460
      ESP Fit Center 1940 is at  -0.475414 -3.260426 -1.340460
      ESP Fit Center 1941 is at  -4.559259 -2.250989  3.315241
      ESP Fit Center 1942 is at  -4.038599 -3.152799  3.315241
      ESP Fit Center 1943 is at  -5.318327 -2.779630  2.649291
      ESP Fit Center 1944 is at  -4.746716 -3.669074  2.649291
      ESP Fit Center 1945 is at  -3.784977 -4.108285  2.649291
      ESP Fit Center 1946 is at  -2.738456 -3.957818  2.649291
      ESP Fit Center 1947 is at  -4.976797 -4.080339  1.686966
      ESP Fit Center 1948 is at  -4.038599 -4.532151  1.686966
      ESP Fit Center 1949 is at  -2.997278 -4.532151  1.686966
      ESP Fit Center 1950 is at  -3.949854  4.042375  0.632966
      ESP Fit Center 1951 is at  -3.949854  4.042375 -0.435135
      ESP Fit Center 1952 is at  -3.719773  3.631110 -1.397460
      ESP Fit Center 1953 is at  -4.291384  2.741666 -1.397460
      ESP Fit Center 1954 is at  -3.532316  2.213025 -2.063410
      ESP Fit Center 1955 is at  -0.545514  4.004869  2.951291
      ESP Fit Center 1956 is at  -1.592035  4.155336  2.951291
      ESP Fit Center 1957 is at  -2.553774  3.716125  2.951291
      ESP Fit Center 1958 is at   0.133862  4.127390  1.988966
      ESP Fit Center 1959 is at  -2.783855  4.127390  1.988966
      ESP Fit Center 1960 is at  -6.735261 -2.103016  2.073241
      ESP Fit Center 1961 is at  -6.214601 -3.004827  2.073241
      ESP Fit Center 1962 is at  -7.494329 -1.574375  1.407291
      ESP Fit Center 1963 is at  -7.494329 -2.631658  1.407291
      ESP Fit Center 1964 is at  -6.922718 -3.521101  1.407291
      ESP Fit Center 1965 is at  -5.960979 -3.960313  1.407291
      ESP Fit Center 1966 is at  -8.033767 -2.103016  0.444966
      ESP Fit Center 1967 is at  -7.802052 -3.118229  0.444966
      ESP Fit Center 1968 is at  -7.152799 -3.932367  0.444966
      ESP Fit Center 1969 is at  -6.214601 -4.384179  0.444966
      ESP Fit Center 1970 is at  -8.109266 -1.737034  0.156241
      ESP Fit Center 1971 is at  -8.868333 -1.208392 -0.509709
      ESP Fit Center 1972 is at  -8.868333 -2.265675 -0.509709
      ESP Fit Center 1973 is at  -8.526803  0.092317 -1.472034
      ESP Fit Center 1974 is at  -9.176056 -0.721821 -1.472034
      ESP Fit Center 1975 is at  -9.407772 -1.737034 -1.472034
      ESP Fit Center 1976 is at  -9.176056 -2.752247 -1.472034
      ESP Fit Center 1977 is at  -8.526803  0.092317 -2.540135
      ESP Fit Center 1978 is at  -9.176056 -0.721821 -2.540135
      ESP Fit Center 1979 is at  -9.407772 -1.737034 -2.540135
      ESP Fit Center 1980 is at  -9.176056 -2.752247 -2.540135
      ESP Fit Center 1981 is at  -8.296723 -0.318949 -3.502460
      ESP Fit Center 1982 is at  -8.868333 -1.208392 -3.502460
      ESP Fit Center 1983 is at  -8.868333 -2.265675 -3.502460
      ESP Fit Center 1984 is at  -3.712549 -1.742015 -4.509460
      ESP Fit Center 1985 is at  -4.010421 -0.727559 -4.509460
      ESP Fit Center 1986 is at  -4.809462 -0.035185 -4.509460
      ESP Fit Center 1987 is at  -5.855984  0.115282 -4.509460
      ESP Fit Center 1988 is at  -6.817723 -0.323930 -4.509460
      ESP Fit Center 1989 is at  -4.809462 -3.448844 -4.509460
      ESP Fit Center 1990 is at  -4.010421 -2.756471 -4.509460
      ESP Fit Center 1991 is at  -4.547624 -1.742015 -5.175410
      ESP Fit Center 1992 is at  -5.068284 -0.840204 -5.175410
      ESP Fit Center 1993 is at  -6.109605 -0.840204 -5.175410
      ESP Fit Center 1994 is at  -6.630266 -1.742015 -5.175410
      ESP Fit Center 1995 is at  -6.109605 -2.643825 -5.175410
      ESP Fit Center 1996 is at  -5.068284 -2.643825 -5.175410
      ESP Fit Center 1997 is at  -5.588945 -1.742015 -5.413085
      ESP Fit Center 1998 is at  -7.319704 -4.647106 -0.658709
      ESP Fit Center 1999 is at  -6.357965 -5.086318 -0.658709
      ESP Fit Center 2000 is at  -8.199037 -4.244234 -1.621034
      ESP Fit Center 2001 is at  -7.549784 -5.058372 -1.621034
      ESP Fit Center 2002 is at  -6.611586 -5.510184 -1.621034
      ESP Fit Center 2003 is at  -5.570265 -5.510184 -1.621034
      ESP Fit Center 2004 is at  -8.199037 -4.244234 -2.689135
      ESP Fit Center 2005 is at  -7.549784 -5.058372 -2.689135
      ESP Fit Center 2006 is at  -6.611586 -5.510184 -2.689135
      ESP Fit Center 2007 is at  -5.570265 -5.510184 -2.689135
      ESP Fit Center 2008 is at  -4.632068 -5.058372 -2.689135
      ESP Fit Center 2009 is at  -7.319704 -4.647106 -3.651460
      ESP Fit Center 2010 is at  -6.357965 -5.086318 -3.651460
      ESP Fit Center 2011 is at  -5.311443 -4.935851 -3.651460
      ESP Fit Center 2012 is at  -4.512402 -4.243477 -3.651460
      ESP Fit Center 2013 is at  -6.611586 -4.130832 -4.317410
      ESP Fit Center 2014 is at  -5.570265 -4.130832 -4.317410
      ESP Fit Center 2015 is at   0.493452  6.735882  0.006291
      ESP Fit Center 2016 is at   0.234629  7.310215 -0.956034
      ESP Fit Center 2017 is at  -0.806692  7.310215 -0.956034
      ESP Fit Center 2018 is at  -1.744890  6.858403 -0.956034
      ESP Fit Center 2019 is at   0.234629  7.310215 -2.024135
      ESP Fit Center 2020 is at  -0.806692  7.310215 -2.024135
      ESP Fit Center 2021 is at  -1.744890  6.858403 -2.024135
      ESP Fit Center 2022 is at   0.493452  6.735882 -2.986460
      ESP Fit Center 2023 is at  -0.553070  6.886349 -2.986460
      ESP Fit Center 2024 is at  -1.514809  6.447138 -2.986460
      ESP Fit Center 2025 is at   0.755290  5.029053 -3.652410
      ESP Fit Center 2026 is at   0.234629  5.930863 -3.652410
      ESP Fit Center 2027 is at  -0.806692  5.930863 -3.652410
      ESP Fit Center 2028 is at  -0.286031  5.029053 -3.890085
      ESP Fit Center 2029 is at  -3.399124  4.600253 -2.211135
      ESP Fit Center 2030 is at  -3.630840  3.585040 -2.211135
      ESP Fit Center 2031 is at  -3.399124  2.569827 -2.211135
      ESP Fit Center 2032 is at  -2.519791  5.003125 -3.173460
      ESP Fit Center 2033 is at  -3.091401  4.113682 -3.173460
      ESP Fit Center 2034 is at  -3.091401  3.056398 -3.173460
      ESP Fit Center 2035 is at  -2.519791  2.166955 -3.173460
      ESP Fit Center 2036 is at  -1.558052  1.727743 -3.173460
      ESP Fit Center 2037 is at  -1.811673  4.486850 -3.839410
      ESP Fit Center 2038 is at  -2.332334  3.585040 -3.839410
      ESP Fit Center 2039 is at  -1.811673  2.683229 -3.839410
      ESP Fit Center 2040 is at  -0.770352  2.683229 -3.839410
      ESP Fit Center 2041 is at  -1.291013  3.585040 -4.077085
      ESP Fit Center 2042 is at  -0.029701  4.322043  2.084241
      ESP Fit Center 2043 is at  -0.550362  5.223853  2.084241
      ESP Fit Center 2044 is at  -1.591683  5.223853  2.084241
      ESP Fit Center 2045 is at  -0.291539  6.028872  1.418291
      ESP Fit Center 2046 is at  -1.338061  6.179339  1.418291
      ESP Fit Center 2047 is at  -2.299800  5.740128  1.418291
      ESP Fit Center 2048 is at  -2.871411  4.850684  1.418291
      ESP Fit Center 2049 is at  -1.591683  6.603205  0.455966
      ESP Fit Center 2050 is at  -2.529880  6.151393  0.455966
      ESP Fit Center 2051 is at  -3.179133  5.337256  0.455966
      ESP Fit Center 2052 is at   8.813908 -3.771861 -1.425135
      ESP Fit Center 2053 is at   8.582192 -2.756648 -1.425135
      ESP Fit Center 2054 is at   7.932939 -5.601212 -1.425135
      ESP Fit Center 2055 is at   8.582192 -4.787074 -1.425135
      ESP Fit Center 2056 is at   8.350476 -3.771861 -2.387460
      ESP Fit Center 2057 is at   8.052605 -2.757405 -2.387460
      ESP Fit Center 2058 is at   7.253564 -2.065032 -2.387460
      ESP Fit Center 2059 is at   6.207042 -5.629158 -2.387460
      ESP Fit Center 2060 is at   7.253564 -5.478691 -2.387460
      ESP Fit Center 2061 is at   8.052605 -4.786317 -2.387460
      ESP Fit Center 2062 is at   7.515402 -3.771861 -3.053410
      ESP Fit Center 2063 is at   6.994741 -2.870051 -3.053410
      ESP Fit Center 2064 is at   5.953420 -2.870051 -3.053410
      ESP Fit Center 2065 is at   5.432760 -3.771861 -3.053410
      ESP Fit Center 2066 is at   5.953420 -4.673672 -3.053410
      ESP Fit Center 2067 is at   6.994741 -4.673672 -3.053410
      ESP Fit Center 2068 is at   6.474081 -3.771861 -3.291085
      ESP Fit Center 2069 is at   6.594077 -3.488860  3.250915
      ESP Fit Center 2070 is at   7.635398 -3.488860  3.013241
      ESP Fit Center 2071 is at   7.114738 -2.587049  3.013241
      ESP Fit Center 2072 is at   6.073417 -2.587049  3.013241
      ESP Fit Center 2073 is at   5.552756 -3.488860  3.013241
      ESP Fit Center 2074 is at   6.073417 -4.390670  3.013241
      ESP Fit Center 2075 is at   7.114738 -4.390670  3.013241
      ESP Fit Center 2076 is at   8.470473 -3.488860  2.347291
      ESP Fit Center 2077 is at   8.172602 -2.474404  2.347291
      ESP Fit Center 2078 is at   7.373560 -1.782030  2.347291
      ESP Fit Center 2079 is at   7.373560 -5.195689  2.347291
      ESP Fit Center 2080 is at   8.172602 -4.503316  2.347291
      ESP Fit Center 2081 is at   8.933904 -3.488860  1.384966
      ESP Fit Center 2082 is at   8.702189 -2.473647  1.384966
      ESP Fit Center 2083 is at   8.052936 -1.659509  1.384966
      ESP Fit Center 2084 is at   8.052936 -5.318210  1.384966
      ESP Fit Center 2085 is at   8.702189 -4.504072  1.384966
      ESP Fit Center 2086 is at   8.933904 -3.488860  0.316865
      ESP Fit Center 2087 is at   8.702189 -2.473647  0.316865
      ESP Fit Center 2088 is at   4.865431 -5.531685  2.384241
      ESP Fit Center 2089 is at   4.157314 -6.047960  1.718291
      ESP Fit Center 2090 is at   5.119053 -6.487172  1.718291
      ESP Fit Center 2091 is at   6.165575 -6.336704  1.718291
      ESP Fit Center 2092 is at   3.927234 -6.459225  0.755966
      ESP Fit Center 2093 is at   4.865431 -6.911038  0.755966
      ESP Fit Center 2094 is at   5.906752 -6.911038  0.755966
      ESP Fit Center 2095 is at   6.844950 -6.459225  0.755966
      ESP Fit Center 2096 is at   3.927234 -6.459225 -0.312135
      ESP Fit Center 2097 is at   4.865431 -6.911038 -0.312135
      ESP Fit Center 2098 is at   5.906752 -6.911038 -0.312135
      ESP Fit Center 2099 is at   4.157314 -6.047960 -1.274460
      ESP Fit Center 2100 is at   5.119053 -6.487172 -1.274460
 Entering OneElI...
 OneElI was handed  8589779924 working-precision words.
 Calculate electrostatic properties
    NBasis =   478  MinDer = 0  MaxDer = 0
    NGrid  =  2100  NMatD  =   1
 Requested accuracy = 0.1000D-05
 PrtBox:  NBox=     1 Levels=  1 BoxLen=   26.77 SMaxX=       25.82
          Shift=           13.356480            8.749196            5.693905
 Box      1 Number                   0 centers from      1 to    167:
 ShPair: Thresh= 1.00D-06 NBox=     1 BxSize= 2.68D+01 RnKept= 1.37D+01
         NSMCal=                14028 NSMKep=                4629
 PrmmSu-InSpLW:  IPartL=    0 NPrtUS=   32 NPrtUL=    1 DoSpLW=F IThBeg=    0 IThEnd=   31 NThAct=   32.
 PrSmSu:  IncTry=   512 NBBP=        9720900 NTPThr=   100 NPartT=   32 Incr=         512 LDynOK=F GPUOK=F.
 PrsmSu:  NPrtUS=  32 ThrOK=T IAlg=2 LenDen=           0 ISkipM=0 DoSpLW=F IThBeg=    0 IThEnd=   31.
 Prism:   IPart=     0 DynPar=F LinDyn=F Incr=         512.
 PRISM was handed   268272205 working-precision words and  4629 shell-pairs
 PRISM was handed   268272205 working-precision words and  4629 shell-pairs
 PRISM was handed   268272205 working-precision words and  4629 shell-pairs
 PRISM was handed   268272205 working-precision words and  4629 shell-pairs
 PRISM was handed   268272205 working-precision words and  4629 shell-pairs
 PRISM was handed   268272205 working-precision words and  4629 shell-pairs
 PRISM was handed   268272205 working-precision words and  4629 shell-pairs
 PRISM was handed   268272205 working-precision words and  4629 shell-pairs
 PRISM was handed   268272205 working-precision words and  4629 shell-pairs
 PRISM was handed   268272205 working-precision words and  4629 shell-pairs
 PRISM was handed   268272205 working-precision words and  4629 shell-pairs
 PRISM was handed   268272205 working-precision words and  4629 shell-pairs
 PRISM was handed   268272205 working-precision words and  4629 shell-pairs
 PRISM was handed   268272205 working-precision words and  4629 shell-pairs
 PRISM was handed   268272205 working-precision words and  4629 shell-pairs
 PRISM was handed   268272205 working-precision words and  4629 shell-pairs
 PRISM was handed   268272205 working-precision words and  4629 shell-pairs
 PRISM was handed   268272205 working-precision words and  4629 shell-pairs
 PRISM was handed   268272205 working-precision words and  4629 shell-pairs
 PRISM was handed   268272205 working-precision words and  4629 shell-pairs
 PRISM was handed   268272205 working-precision words and  4629 shell-pairs
 PRISM was handed   268272205 working-precision words and  4629 shell-pairs
 PRISM was handed   268272205 working-precision words and  4629 shell-pairs
 PRISM was handed   268272205 working-precision words and  4629 shell-pairs
 PRISM was handed   268272205 working-precision words and  4629 shell-pairs
 PRISM was handed   268272205 working-precision words and  4629 shell-pairs
 PRISM was handed   268272205 working-precision words and  4629 shell-pairs
 PRISM was handed   268272205 working-precision words and  4629 shell-pairs
 PRISM was handed   268272205 working-precision words and  4629 shell-pairs
 PRISM was handed   268272205 working-precision words and  4629 shell-pairs
 PRISM was handed   268272205 working-precision words and  4629 shell-pairs
 PRISM was handed   268272205 working-precision words and  4629 shell-pairs
 IPart= 27 NShTot=      273000 NBatch=        1032 AvBLen=       264.5
 PrsmSu-ThDecC:  IPartSL=   27    0 NPrtUSL=   32    1 IThBeg=    0 IThEnd=   31 CPU=   -1 GPU=   -1 NThAct=   32.
 IPart=  3 NShTot=      331800 NBatch=        1292 AvBLen=       256.8
 PrsmSu-ThDecC:  IPartSL=    3    0 NPrtUSL=   32    1 IThBeg=    0 IThEnd=   31 CPU=   -1 GPU=   -1 NThAct=   31.
 IPart= 18 NShTot=      296100 NBatch=        1131 AvBLen=       261.8
 PrsmSu-ThDecC:  IPartSL=   18    0 NPrtUSL=   32    1 IThBeg=    0 IThEnd=   31 CPU=   -1 GPU=   -1 NThAct=   30.
 IPart= 10 NShTot=      319200 NBatch=        1238 AvBLen=       257.8
 PrsmSu-ThDecC:  IPartSL=   10    0 NPrtUSL=   32    1 IThBeg=    0 IThEnd=   31 CPU=   -1 GPU=   -1 NThAct=   29.
 IPart=  5 NShTot=      331800 NBatch=        1292 AvBLen=       256.8
 IPart= 15 NShTot=      302400 NBatch=        1162 AvBLen=       260.2
 IPart= 11 NShTot=      317100 NBatch=        1224 AvBLen=       259.1
 PrsmSu-ThDecC:  IPartSL=    5    0 NPrtUSL=   32    1 IThBeg=    0 IThEnd=   31 CPU=   -1 GPU=   -1 NThAct=   28.
 PrsmSu-ThDecC:  IPartSL=   15    0 NPrtUSL=   32    1 IThBeg=    0 IThEnd=   31 CPU=   -1 GPU=   -1 NThAct=   27.
 IPart=  8 NShTot=      327600 NBatch=        1273 AvBLen=       257.3
 PrsmSu-ThDecC:  IPartSL=   11    0 NPrtUSL=   32    1 IThBeg=    0 IThEnd=   31 CPU=   -1 GPU=   -1 NThAct=   26.
 PrsmSu-ThDecC:  IPartSL=    8    0 NPrtUSL=   32    1 IThBeg=    0 IThEnd=   31 CPU=   -1 GPU=   -1 NThAct=   25.
 IPart=  0 NShTot=      357000 NBatch=        1536 AvBLen=       232.4
 PrsmSu-ThDecC:  IPartSL=    0    0 NPrtUSL=   32    1 IThBeg=    0 IThEnd=   31 CPU=   -1 GPU=   -1 NThAct=   24.
 IPart= 25 NShTot=      279300 NBatch=        1063 AvBLen=       262.7
 PrsmSu-ThDecC:  IPartSL=   25    0 NPrtUSL=   32    1 IThBeg=    0 IThEnd=   31 CPU=   -1 GPU=   -1 NThAct=   23.
 IPart= 29 NShTot=      266700 NBatch=         971 AvBLen=       274.7
 PrsmSu-ThDecC:  IPartSL=   29    0 NPrtUSL=   32    1 IThBeg=    0 IThEnd=   31 CPU=   -1 GPU=   -1 NThAct=   22.
 IPart=  4 NShTot=      331800 NBatch=        1292 AvBLen=       256.8
 PrsmSu-ThDecC:  IPartSL=    4    0 NPrtUSL=   32    1 IThBeg=    0 IThEnd=   31 CPU=   -1 GPU=   -1 NThAct=   21.
 IPart= 23 NShTot=      281400 NBatch=        1070 AvBLen=       263.0
 PrsmSu-ThDecC:  IPartSL=   23    0 NPrtUSL=   32    1 IThBeg=    0 IThEnd=   31 CPU=   -1 GPU=   -1 NThAct=   20.
 IPart= 12 NShTot=      315000 NBatch=        1216 AvBLen=       259.0
 PrsmSu-ThDecC:  IPartSL=   12    0 NPrtUSL=   32    1 IThBeg=    0 IThEnd=   31 CPU=   -1 GPU=   -1 NThAct=   19.
 IPart= 19 NShTot=      291900 NBatch=        1115 AvBLen=       261.8
 PrsmSu-ThDecC:  IPartSL=   19    0 NPrtUSL=   32    1 IThBeg=    0 IThEnd=   31 CPU=   -1 GPU=   -1 NThAct=   18.
 IPart=  7 NShTot=      327600 NBatch=        1273 AvBLen=       257.3
 PrsmSu-ThDecC:  IPartSL=    7    0 NPrtUSL=   32    1 IThBeg=    0 IThEnd=   31 CPU=   -1 GPU=   -1 NThAct=   17.
 IPart=  6 NShTot=      329700 NBatch=        1288 AvBLen=       256.0
 PrsmSu-ThDecC:  IPartSL=    6    0 NPrtUSL=   32    1 IThBeg=    0 IThEnd=   31 CPU=   -1 GPU=   -1 NThAct=   16.
 IPart= 16 NShTot=      298200 NBatch=        1143 AvBLen=       260.9
 PrsmSu-ThDecC:  IPartSL=   16    0 NPrtUSL=   32    1 IThBeg=    0 IThEnd=   31 CPU=   -1 GPU=   -1 NThAct=   15.
 IPart=  9 NShTot=      319200 NBatch=        1238 AvBLen=       257.8
 PrsmSu-ThDecC:  IPartSL=    9    0 NPrtUSL=   32    1 IThBeg=    0 IThEnd=   31 CPU=   -1 GPU=   -1 NThAct=   14.
 IPart= 21 NShTot=      289800 NBatch=        1107 AvBLen=       261.8
 PrsmSu-ThDecC:  IPartSL=   21    0 NPrtUSL=   32    1 IThBeg=    0 IThEnd=   31 CPU=   -1 GPU=   -1 NThAct=   13.
 IPart= 30 NShTot=      266700 NBatch=         971 AvBLen=       274.7
 PrsmSu-ThDecC:  IPartSL=   30    0 NPrtUSL=   32    1 IThBeg=    0 IThEnd=   31 CPU=   -1 GPU=   -1 NThAct=   12.
 IPart= 20 NShTot=      289800 NBatch=        1107 AvBLen=       261.8
 PrsmSu-ThDecC:  IPartSL=   20    0 NPrtUSL=   32    1 IThBeg=    0 IThEnd=   31 CPU=   -1 GPU=   -1 NThAct=   11.
 IPart= 28 NShTot=      266700 NBatch=         971 AvBLen=       274.7
 PrsmSu-ThDecC:  IPartSL=   28    0 NPrtUSL=   32    1 IThBeg=    0 IThEnd=   31 CPU=   -1 GPU=   -1 NThAct=   10.
 IPart= 31 NShTot=      266700 NBatch=         971 AvBLen=       274.7
 PrsmSu-ThDecC:  IPartSL=   31    0 NPrtUSL=   32    1 IThBeg=    0 IThEnd=   31 CPU=   -1 GPU=   -1 NThAct=    9.
 IPart= 26 NShTot=      275100 NBatch=        1042 AvBLen=       264.0
 PrsmSu-ThDecC:  IPartSL=   26    0 NPrtUSL=   32    1 IThBeg=    0 IThEnd=   31 CPU=   -1 GPU=   -1 NThAct=    8.
 IPart=  1 NShTot=      342300 NBatch=        1349 AvBLen=       253.7
 PrsmSu-ThDecC:  IPartSL=    1    0 NPrtUSL=   32    1 IThBeg=    0 IThEnd=   31 CPU=   -1 GPU=   -1 NThAct=    7.
 IPart= 24 NShTot=      281400 NBatch=        1070 AvBLen=       263.0
 PrsmSu-ThDecC:  IPartSL=   24    0 NPrtUSL=   32    1 IThBeg=    0 IThEnd=   31 CPU=   -1 GPU=   -1 NThAct=    6.
 IPart= 22 NShTot=      285600 NBatch=        1089 AvBLen=       262.3
 PrsmSu-ThDecC:  IPartSL=   22    0 NPrtUSL=   32    1 IThBeg=    0 IThEnd=   31 CPU=   -1 GPU=   -1 NThAct=    5.
 IPart= 17 NShTot=      298200 NBatch=        1143 AvBLen=       260.9
 PrsmSu-ThDecC:  IPartSL=   17    0 NPrtUSL=   32    1 IThBeg=    0 IThEnd=   31 CPU=   -1 GPU=   -1 NThAct=    4.
 IPart= 13 NShTot=      312900 NBatch=        1206 AvBLen=       259.5
 PrsmSu-ThDecC:  IPartSL=   13    0 NPrtUSL=   32    1 IThBeg=    0 IThEnd=   31 CPU=   -1 GPU=   -1 NThAct=    3.
 IPart=  2 NShTot=      340200 NBatch=        1341 AvBLen=       253.7
 PrsmSu-ThDecC:  IPartSL=    2    0 NPrtUSL=   32    1 IThBeg=    0 IThEnd=   31 CPU=   -1 GPU=   -1 NThAct=    2.
 IPart= 14 NShTot=      308700 NBatch=        1191 AvBLen=       259.2
 PrsmSu-ThDecC:  IPartSL=   14    0 NPrtUSL=   32    1 IThBeg=    0 IThEnd=   31 CPU=   -1 GPU=   -1 NThAct=    1.
 PrSmSu:  NxtVal=          16385.
    2045 points will be used for fitting atomic charges
 Fitting point charges to electrostatic potential
 Charges from ESP fit, RMS=   0.00160 RRMS=   0.01719:
 ESP charges:
               1
     1  C   -0.447110
     2  C    0.612973
     3  C   -0.613670
     4  C    0.402301
     5  C    1.045831
     6  C    0.348691
     7  C   -0.381586
     8  N   -0.698180
     9  C   -0.267747
    10  C    0.805008
    11  C    0.221439
    12  C   -0.044255
    13  C   -0.274667
    14  C    0.323172
    15  C    0.133003
    16  C   -0.210025
    17  N   -0.814078
    18  C   -0.471843
    19  C   -0.091163
    20  C   -0.170978
    21  C    0.053064
    22  N   -0.611992
    23  N   -0.410744
    24  N   -0.326394
    25  N   -0.069075
    26  N   -0.784546
    27  S    0.029121
    28  N   -0.547198
    29  H    0.238731
    30  H    0.142452
    31  H    0.411763
    32  H    0.091828
    33  H    0.084195
    34  H    0.162184
    35  H    0.161188
    36  H    0.095872
    37  H    0.029308
    38  H    0.143971
    39  H    0.187036
    40  H    0.138092
    41  H    0.162928
    42  H    0.187705
    43  H    0.098178
    44  H    0.091966
    45  H    0.128423
    46  H    0.375027
    47  H    0.214184
    48  H    0.224099
    49  H    0.207064
    50  H    0.108839
    51  H    0.106174
    52  H    0.081219
    53  H    0.126215
    54  H    0.132315
    55  H    0.129692
 Sum of ESP charges =   1.00000
 ESP charges with hydrogens summed into heavy atoms:
               1
     1  C   -0.058889
     2  C    0.612973
     3  C   -0.374939
     4  C    0.402301
     5  C    1.045831
     6  C    0.491143
     7  C   -0.381586
     8  N   -0.286417
     9  C    0.028484
    10  C    0.805008
    11  C    0.397462
    12  C   -0.044255
    13  C    0.048705
    14  C    0.323172
    15  C    0.258184
    16  C    0.120983
    17  N   -0.814078
    18  C    0.173502
    19  C    0.209858
    20  C    0.114905
    21  C    0.273453
    22  N   -0.611992
    23  N   -0.410744
    24  N   -0.326394
    25  N    0.305952
    26  N   -0.784546
    27  S    0.029121
    28  N   -0.547198
 Charge=   1.00000 Dipole=   -24.7500    -4.9091    -5.1716 Tot=    25.7567
 -----------------------------------------------------------------

              Electrostatic Properties (Atomic Units)

 -----------------------------------------------------------------
    Center     Electric         -------- Electric Field --------
               Potential          X             Y             Z
 -----------------------------------------------------------------
    1 Atom    -14.679557
    2 Atom    -14.622608
    3 Atom    -14.674064
    4 Atom    -14.571484
    5 Atom    -14.521161
    6 Atom    -14.591650
    7 Atom    -14.644386
    8 Atom    -18.213337
    9 Atom    -14.641892
   10 Atom    -14.545318
   11 Atom    -14.588151
   12 Atom    -14.541469
   13 Atom    -14.559158
   14 Atom    -14.594060
   15 Atom    -14.525025
   16 Atom    -14.495684
   17 Atom    -18.280147
   18 Atom    -14.497015
   19 Atom    -14.498040
   20 Atom    -14.528176
   21 Atom    -14.572398
   22 Atom    -18.224195
   23 Atom    -18.249632
   24 Atom    -18.182897
   25 Atom    -18.025664
   26 Atom    -18.271086
   27 Atom    -59.110414
   28 Atom    -18.295228
   29 Atom     -1.029499
   30 Atom     -1.016280
   31 Atom     -0.925456
   32 Atom     -1.011535
   33 Atom     -1.008789
   34 Atom     -0.955310
   35 Atom     -0.955834
   36 Atom     -0.941548
   37 Atom     -0.948878
   38 Atom     -0.912985
   39 Atom     -0.917638
   40 Atom     -0.915208
   41 Atom     -0.919840
   42 Atom     -0.945140
   43 Atom     -0.951136
   44 Atom     -0.995518
   45 Atom     -0.995235
   46 Atom     -0.783451
   47 Atom     -0.909038
   48 Atom     -0.909185
   49 Atom     -0.909178
   50 Atom     -1.031737
   51 Atom     -1.032321
   52 Atom     -1.033291
   53 Atom     -1.060160
   54 Atom     -1.060304
   55 Atom     -1.068033
   56 Fit       0.031661
   57 Fit       0.045192
   58 Fit       0.045415
   59 Fit       0.047080
   60 Fit       0.034270
   61 Fit       0.037522
   62 Fit       0.033830
   63 Fit       0.030906
   64 Fit       0.040284
   65 Fit       0.032399
   66 Fit       0.042658
   67 Fit       0.037978
   68 Fit       0.062559
   69 Fit       0.049745
   70 Fit       0.056027
   71 Fit       0.036196
   72 Fit       0.043986
   73 Fit       0.037617
   74 Fit       0.038306
   75 Fit       0.043920
   76 Fit       0.048646
   77 Fit       0.047337
   78 Fit       0.055129
   79 Fit       0.051463
   80 Fit       0.061764
   81 Fit       0.067200
   82 Fit       0.060497
   83 Fit       0.058636
   84 Fit       0.057383
   85 Fit       0.057421
   86 Fit       0.064356
   87 Fit       0.077244
   88 Fit       0.060669
   89 Fit       0.062992
   90 Fit       0.070620
   91 Fit       0.060460
   92 Fit       0.067676
   93 Fit       0.062110
   94 Fit       0.064123
   95 Fit       0.044848
   96 Fit       0.049430
   97 Fit       0.047613
   98 Fit       0.054613
   99 Fit       0.065567
  100 Fit       0.058416
  101 Fit       0.052203
  102 Fit       0.050895
  103 Fit       0.051654
  104 Fit       0.075571
  105 Fit       0.081581
  106 Fit       0.091824
  107 Fit       0.074545
  108 Fit       0.071687
  109 Fit       0.075486
  110 Fit       0.082715
  111 Fit       0.068077
  112 Fit       0.070924
  113 Fit       0.065305
  114 Fit       0.066299
  115 Fit       0.135942
  116 Fit       0.117489
  117 Fit       0.076078
  118 Fit       0.075685
  119 Fit       0.077932
  120 Fit       0.106757
  121 Fit       0.100373
  122 Fit       0.069894
  123 Fit       0.086834
  124 Fit       0.116401
  125 Fit       0.082168
  126 Fit       0.048518
  127 Fit       0.038428
  128 Fit       0.033380
  129 Fit       0.043358
  130 Fit       0.020663
  131 Fit       0.032396
  132 Fit       0.016662
  133 Fit       0.025800
  134 Fit       0.033391
  135 Fit       0.017864
  136 Fit       0.037944
  137 Fit       0.028692
  138 Fit       0.033897
  139 Fit       0.056791
  140 Fit       0.045519
  141 Fit       0.040561
  142 Fit       0.168645
  143 Fit       0.150050
  144 Fit       0.149859
  145 Fit       0.150583
  146 Fit       0.177132
  147 Fit       0.142174
  148 Fit       0.158777
  149 Fit       0.121749
  150 Fit       0.146439
  151 Fit       0.069442
  152 Fit       0.067289
  153 Fit       0.063567
  154 Fit       0.062040
  155 Fit       0.026972
  156 Fit       0.016901
  157 Fit       0.017727
  158 Fit       0.030551
  159 Fit       0.042644
  160 Fit       0.041853
  161 Fit       0.028748
  162 Fit       0.014468
  163 Fit       0.012143
  164 Fit       0.018196
  165 Fit       0.030386
  166 Fit       0.044765
  167 Fit       0.060739
  168 Fit       0.055697
  169 Fit       0.037612
  170 Fit       0.023759
  171 Fit       0.020935
  172 Fit       0.019088
  173 Fit       0.024143
  174 Fit       0.035409
  175 Fit       0.050291
  176 Fit       0.068802
  177 Fit       0.042842
  178 Fit       0.028775
  179 Fit       0.035762
  180 Fit       0.036329
  181 Fit       0.046312
  182 Fit       0.066694
  183 Fit       0.046579
  184 Fit       0.065311
  185 Fit       0.073419
  186 Fit       0.095269
  187 Fit       0.089235
  188 Fit       0.048942
  189 Fit       0.049828
  190 Fit       0.055811
  191 Fit       0.062853
  192 Fit       0.049962
  193 Fit       0.051618
  194 Fit       0.059667
  195 Fit       0.032378
  196 Fit       0.031271
  197 Fit       0.034769
  198 Fit       0.040723
  199 Fit       0.050062
  200 Fit       0.037189
  201 Fit       0.021032
  202 Fit       0.075155
  203 Fit       0.054372
  204 Fit       0.087610
  205 Fit       0.060396
  206 Fit       0.083825
  207 Fit       0.058819
  208 Fit       0.057540
  209 Fit       0.063111
  210 Fit       0.050079
  211 Fit       0.024888
  212 Fit       0.040056
  213 Fit       0.049933
  214 Fit       0.045164
  215 Fit       0.044375
  216 Fit       0.038121
  217 Fit       0.033725
  218 Fit       0.039297
  219 Fit       0.014912
  220 Fit       0.028542
  221 Fit       0.007072
  222 Fit       0.013499
  223 Fit       0.007387
  224 Fit       0.003312
  225 Fit       0.014932
  226 Fit       0.001836
  227 Fit       0.012347
  228 Fit       0.007652
  229 Fit       0.015597
  230 Fit       0.022954
  231 Fit       0.026866
  232 Fit       0.057431
  233 Fit       0.057341
  234 Fit       0.064631
  235 Fit       0.068625
  236 Fit       0.081371
  237 Fit       0.064283
  238 Fit       0.066295
  239 Fit       0.072169
  240 Fit       0.092654
  241 Fit       0.064080
  242 Fit       0.062755
  243 Fit       0.071251
  244 Fit       0.052767
  245 Fit       0.068645
  246 Fit       0.062857
  247 Fit       0.073332
  248 Fit       0.082212
  249 Fit       0.064933
  250 Fit       0.075156
  251 Fit       0.085120
  252 Fit       0.059723
  253 Fit       0.072747
  254 Fit       0.082253
  255 Fit       0.071142
  256 Fit       0.074043
  257 Fit       0.062481
  258 Fit       0.087615
  259 Fit       0.077674
  260 Fit       0.051721
  261 Fit       0.088813
  262 Fit       0.078678
  263 Fit       0.046589
  264 Fit       0.079855
  265 Fit       0.063981
  266 Fit       0.064864
  267 Fit       0.060389
  268 Fit       0.084696
  269 Fit       0.055286
  270 Fit       0.085201
  271 Fit       0.088770
  272 Fit       0.114065
  273 Fit       0.109554
  274 Fit       0.069105
  275 Fit       0.089131
  276 Fit       0.126015
  277 Fit       0.098697
  278 Fit       0.092425
  279 Fit       0.112163
  280 Fit       0.117277
  281 Fit       0.122164
  282 Fit       0.119370
  283 Fit       0.125347
  284 Fit       0.134638
  285 Fit       0.141454
  286 Fit       0.140854
  287 Fit       0.145586
  288 Fit       0.112279
  289 Fit       0.120736
  290 Fit       0.110934
  291 Fit       0.141942
  292 Fit       0.134310
  293 Fit       0.121960
  294 Fit       0.110705
  295 Fit       0.138840
  296 Fit       0.125819
  297 Fit       0.143187
  298 Fit       0.141983
  299 Fit       0.139938
  300 Fit       0.138418
  301 Fit       0.149246
  302 Fit       0.143840
  303 Fit       0.162761
  304 Fit       0.149293
  305 Fit       0.149620
  306 Fit       0.142058
  307 Fit       0.150228
  308 Fit       0.157559
  309 Fit       0.147138
  310 Fit       0.151357
  311 Fit       0.165309
  312 Fit       0.180998
  313 Fit       0.158624
  314 Fit       0.179830
  315 Fit       0.164749
  316 Fit       0.150427
  317 Fit       0.153634
  318 Fit       0.171794
  319 Fit       0.148910
  320 Fit       0.154549
  321 Fit       0.179429
  322 Fit       0.158023
  323 Fit       0.161353
  324 Fit       0.136566
  325 Fit       0.137165
  326 Fit       0.144760
  327 Fit       0.150594
  328 Fit       0.152029
  329 Fit       0.144800
  330 Fit       0.154269
  331 Fit       0.160453
  332 Fit       0.182112
  333 Fit       0.158073
  334 Fit       0.200394
  335 Fit       0.162193
  336 Fit       0.147586
  337 Fit       0.147965
  338 Fit       0.162364
  339 Fit       0.145577
  340 Fit       0.143410
  341 Fit       0.149550
  342 Fit       0.134892
  343 Fit       0.129233
  344 Fit       0.147873
  345 Fit       0.142846
  346 Fit       0.137945
  347 Fit       0.149173
  348 Fit       0.146977
  349 Fit       0.153444
  350 Fit       0.138473
  351 Fit       0.135567
  352 Fit       0.133814
  353 Fit       0.123052
  354 Fit       0.140398
  355 Fit       0.125167
  356 Fit       0.134970
  357 Fit       0.148391
  358 Fit       0.149441
  359 Fit       0.161173
  360 Fit       0.149716
  361 Fit       0.139135
  362 Fit       0.179965
  363 Fit       0.155846
  364 Fit       0.141431
  365 Fit       0.140046
  366 Fit       0.183668
  367 Fit       0.132226
  368 Fit       0.118599
  369 Fit       0.117299
  370 Fit       0.141678
  371 Fit       0.123855
  372 Fit       0.132617
  373 Fit       0.109271
  374 Fit       0.081922
  375 Fit       0.103529
  376 Fit       0.078945
  377 Fit       0.082080
  378 Fit       0.093274
  379 Fit       0.104159
  380 Fit       0.123254
  381 Fit       0.195206
  382 Fit       0.195448
  383 Fit       0.188265
  384 Fit       0.194007
  385 Fit       0.198049
  386 Fit       0.190413
  387 Fit       0.190325
  388 Fit       0.197638
  389 Fit       0.180092
  390 Fit       0.175391
  391 Fit       0.170543
  392 Fit       0.154431
  393 Fit       0.150921
  394 Fit       0.160207
  395 Fit       0.172934
  396 Fit       0.154253
  397 Fit       0.145188
  398 Fit       0.143463
  399 Fit       0.145945
  400 Fit       0.148025
  401 Fit       0.169821
  402 Fit       0.168154
  403 Fit       0.164630
  404 Fit       0.156761
  405 Fit       0.162309
  406 Fit       0.148581
  407 Fit       0.147914
  408 Fit       0.144220
  409 Fit       0.145390
  410 Fit       0.145113
  411 Fit       0.141934
  412 Fit       0.176393
  413 Fit       0.186932
  414 Fit       0.154633
  415 Fit       0.151430
  416 Fit       0.159693
  417 Fit       0.146565
  418 Fit       0.142732
  419 Fit       0.147635
  420 Fit       0.160651
  421 Fit       0.144400
  422 Fit       0.145017
  423 Fit       0.075281
  424 Fit       0.086060
  425 Fit       0.076465
  426 Fit       0.075600
  427 Fit       0.085909
  428 Fit       0.078000
  429 Fit       0.076608
  430 Fit       0.078970
  431 Fit       0.079973
  432 Fit       0.077709
  433 Fit       0.076488
  434 Fit       0.075519
  435 Fit       0.098552
  436 Fit       0.082123
  437 Fit       0.093892
  438 Fit       0.106087
  439 Fit       0.096936
  440 Fit       0.075214
  441 Fit       0.076725
  442 Fit       0.085040
  443 Fit       0.093230
  444 Fit       0.081435
  445 Fit       0.081102
  446 Fit       0.091390
  447 Fit       0.078523
  448 Fit       0.078831
  449 Fit       0.090717
  450 Fit       0.074954
  451 Fit       0.081580
  452 Fit       0.094226
  453 Fit       0.080061
  454 Fit       0.090298
  455 Fit       0.049374
  456 Fit       0.047470
  457 Fit       0.052179
  458 Fit       0.056237
  459 Fit       0.062608
  460 Fit       0.046881
  461 Fit       0.049673
  462 Fit       0.053979
  463 Fit       0.055299
  464 Fit       0.050328
  465 Fit       0.047089
  466 Fit       0.050526
  467 Fit       0.052499
  468 Fit       0.048082
  469 Fit       0.051160
  470 Fit       0.051442
  471 Fit       0.045617
  472 Fit       0.042221
  473 Fit       0.046737
  474 Fit       0.051300
  475 Fit       0.054369
  476 Fit       0.054891
  477 Fit       0.045311
  478 Fit       0.048035
  479 Fit       0.049882
  480 Fit       0.055632
  481 Fit       0.047618
  482 Fit       0.039587
  483 Fit       0.037623
  484 Fit       0.043971
  485 Fit       0.025341
  486 Fit       0.044295
  487 Fit       0.046812
  488 Fit       0.045314
  489 Fit       0.024401
  490 Fit       0.043801
  491 Fit       0.046422
  492 Fit       0.045730
  493 Fit       0.037317
  494 Fit       0.043979
  495 Fit       0.031890
  496 Fit       0.038212
  497 Fit       0.043021
  498 Fit       0.043434
  499 Fit       0.053116
  500 Fit       0.044304
  501 Fit       0.042604
  502 Fit       0.033875
  503 Fit       0.037459
  504 Fit       0.034290
  505 Fit       0.040138
  506 Fit       0.034499
  507 Fit       0.041900
  508 Fit       0.038611
  509 Fit       0.052808
  510 Fit       0.048296
  511 Fit       0.052965
  512 Fit       0.037686
  513 Fit       0.043694
  514 Fit       0.040925
  515 Fit       0.041833
  516 Fit       0.043817
  517 Fit       0.046765
  518 Fit       0.049988
  519 Fit       0.048815
  520 Fit       0.055588
  521 Fit       0.062159
  522 Fit       0.057910
  523 Fit       0.055113
  524 Fit       0.055197
  525 Fit       0.053716
  526 Fit       0.060838
  527 Fit       0.058808
  528 Fit       0.067772
  529 Fit       0.062265
  530 Fit       0.070574
  531 Fit       0.066564
  532 Fit       0.060086
  533 Fit       0.060199
  534 Fit       0.069368
  535 Fit       0.058635
  536 Fit       0.059939
  537 Fit       0.067356
  538 Fit       0.061158
  539 Fit       0.064579
  540 Fit       0.043838
  541 Fit       0.046201
  542 Fit       0.046246
  543 Fit       0.061990
  544 Fit       0.048714
  545 Fit       0.058904
  546 Fit       0.053231
  547 Fit       0.050640
  548 Fit       0.049797
  549 Fit       0.051711
  550 Fit       0.071220
  551 Fit       0.076846
  552 Fit       0.084112
  553 Fit       0.070801
  554 Fit       0.070284
  555 Fit       0.073339
  556 Fit       0.063777
  557 Fit       0.071207
  558 Fit       0.066079
  559 Fit       0.064787
  560 Fit       0.105743
  561 Fit       0.068921
  562 Fit       0.068360
  563 Fit       0.069411
  564 Fit       0.091425
  565 Fit       0.102135
  566 Fit       0.099677
  567 Fit       0.085803
  568 Fit       0.062125
  569 Fit       0.089504
  570 Fit       0.092076
  571 Fit       0.064468
  572 Fit       0.084742
  573 Fit       0.139072
  574 Fit       0.153516
  575 Fit       0.146675
  576 Fit       0.148997
  577 Fit       0.048117
  578 Fit       0.041559
  579 Fit       0.038691
  580 Fit       0.045133
  581 Fit       0.030619
  582 Fit       0.037026
  583 Fit       0.028718
  584 Fit       0.030146
  585 Fit       0.027364
  586 Fit       0.031151
  587 Fit       0.038469
  588 Fit       0.028883
  589 Fit       0.041946
  590 Fit       0.036437
  591 Fit       0.039850
  592 Fit       0.054413
  593 Fit       0.046493
  594 Fit       0.044775
  595 Fit       0.169370
  596 Fit       0.137473
  597 Fit       0.137619
  598 Fit       0.137290
  599 Fit       0.139701
  600 Fit       0.138413
  601 Fit       0.137212
  602 Fit       0.099449
  603 Fit       0.078047
  604 Fit       0.075212
  605 Fit       0.066293
  606 Fit       0.067919
  607 Fit       0.031758
  608 Fit       0.023784
  609 Fit       0.024663
  610 Fit       0.034495
  611 Fit       0.044220
  612 Fit       0.043417
  613 Fit       0.032707
  614 Fit       0.020688
  615 Fit       0.019244
  616 Fit       0.023972
  617 Fit       0.033506
  618 Fit       0.045396
  619 Fit       0.058019
  620 Fit       0.053361
  621 Fit       0.039043
  622 Fit       0.027693
  623 Fit       0.023059
  624 Fit       0.021617
  625 Fit       0.024970
  626 Fit       0.032894
  627 Fit       0.044076
  628 Fit       0.057568
  629 Fit       0.056082
  630 Fit       0.039366
  631 Fit       0.028853
  632 Fit       0.030833
  633 Fit       0.030568
  634 Fit       0.035242
  635 Fit       0.045233
  636 Fit       0.059775
  637 Fit       0.077808
  638 Fit       0.049307
  639 Fit       0.036151
  640 Fit       0.044610
  641 Fit       0.047206
  642 Fit       0.058520
  643 Fit       0.102589
  644 Fit       0.098823
  645 Fit       0.191520
  646 Fit       0.049257
  647 Fit       0.046392
  648 Fit       0.051537
  649 Fit       0.062807
  650 Fit       0.054865
  651 Fit       0.052819
  652 Fit       0.059443
  653 Fit       0.035619
  654 Fit       0.032080
  655 Fit       0.035646
  656 Fit       0.042277
  657 Fit       0.051569
  658 Fit       0.039824
  659 Fit       0.026847
  660 Fit       0.042651
  661 Fit       0.067559
  662 Fit       0.044452
  663 Fit       0.078970
  664 Fit       0.047614
  665 Fit       0.090319
  666 Fit       0.061017
  667 Fit       0.074930
  668 Fit       0.049224
  669 Fit       0.053330
  670 Fit       0.064975
  671 Fit       0.060934
  672 Fit       0.046100
  673 Fit       0.040624
  674 Fit       0.047842
  675 Fit       0.048214
  676 Fit       0.049320
  677 Fit       0.042931
  678 Fit       0.037286
  679 Fit       0.043016
  680 Fit       0.022424
  681 Fit       0.018690
  682 Fit       0.021092
  683 Fit       0.020471
  684 Fit       0.015662
  685 Fit       0.020815
  686 Fit       0.015319
  687 Fit       0.022551
  688 Fit       0.016755
  689 Fit       0.025056
  690 Fit       0.020105
  691 Fit       0.025734
  692 Fit       0.029246
  693 Fit       0.052568
  694 Fit       0.052241
  695 Fit       0.058405
  696 Fit       0.060750
  697 Fit       0.067173
  698 Fit       0.059342
  699 Fit       0.060864
  700 Fit       0.064158
  701 Fit       0.073131
  702 Fit       0.059914
  703 Fit       0.060824
  704 Fit       0.065622
  705 Fit       0.079164
  706 Fit       0.059190
  707 Fit       0.057913
  708 Fit       0.063596
  709 Fit       0.061770
  710 Fit       0.055874
  711 Fit       0.065093
  712 Fit       0.072474
  713 Fit       0.054410
  714 Fit       0.063918
  715 Fit       0.070922
  716 Fit       0.079579
  717 Fit       0.059012
  718 Fit       0.067533
  719 Fit       0.075424
  720 Fit       0.056925
  721 Fit       0.065566
  722 Fit       0.073288
  723 Fit       0.066591
  724 Fit       0.063845
  725 Fit       0.075486
  726 Fit       0.068314
  727 Fit       0.053338
  728 Fit       0.080373
  729 Fit       0.072790
  730 Fit       0.058615
  731 Fit       0.077374
  732 Fit       0.069849
  733 Fit       0.049708
  734 Fit       0.069682
  735 Fit       0.060801
  736 Fit       0.072310
  737 Fit       0.050587
  738 Fit       0.077467
  739 Fit       0.101673
  740 Fit       0.094547
  741 Fit       0.067938
  742 Fit       0.110731
  743 Fit       0.114633
  744 Fit       0.087774
  745 Fit       0.089293
  746 Fit       0.103166
  747 Fit       0.104428
  748 Fit       0.111050
  749 Fit       0.112692
  750 Fit       0.110174
  751 Fit       0.118007
  752 Fit       0.124977
  753 Fit       0.128190
  754 Fit       0.122176
  755 Fit       0.127536
  756 Fit       0.135761
  757 Fit       0.108776
  758 Fit       0.100024
  759 Fit       0.126461
  760 Fit       0.117935
  761 Fit       0.107527
  762 Fit       0.098206
  763 Fit       0.126311
  764 Fit       0.114131
  765 Fit       0.105700
  766 Fit       0.126948
  767 Fit       0.139716
  768 Fit       0.133763
  769 Fit       0.132363
  770 Fit       0.128711
  771 Fit       0.133875
  772 Fit       0.130899
  773 Fit       0.131693
  774 Fit       0.141918
  775 Fit       0.136358
  776 Fit       0.148845
  777 Fit       0.135647
  778 Fit       0.136509
  779 Fit       0.143345
  780 Fit       0.137959
  781 Fit       0.136996
  782 Fit       0.143788
  783 Fit       0.155026
  784 Fit       0.163104
  785 Fit       0.152987
  786 Fit       0.163886
  787 Fit       0.152704
  788 Fit       0.157158
  789 Fit       0.145107
  790 Fit       0.142312
  791 Fit       0.150903
  792 Fit       0.174312
  793 Fit       0.146782
  794 Fit       0.138937
  795 Fit       0.140569
  796 Fit       0.151092
  797 Fit       0.141681
  798 Fit       0.142327
  799 Fit       0.156189
  800 Fit       0.149924
  801 Fit       0.121322
  802 Fit       0.137955
  803 Fit       0.143196
  804 Fit       0.133997
  805 Fit       0.128696
  806 Fit       0.133143
  807 Fit       0.137499
  808 Fit       0.146580
  809 Fit       0.143940
  810 Fit       0.136203
  811 Fit       0.140941
  812 Fit       0.157840
  813 Fit       0.151271
  814 Fit       0.162401
  815 Fit       0.152568
  816 Fit       0.172178
  817 Fit       0.147858
  818 Fit       0.138937
  819 Fit       0.142789
  820 Fit       0.151623
  821 Fit       0.137665
  822 Fit       0.132811
  823 Fit       0.137042
  824 Fit       0.146282
  825 Fit       0.134765
  826 Fit       0.134419
  827 Fit       0.155272
  828 Fit       0.141213
  829 Fit       0.130942
  830 Fit       0.117489
  831 Fit       0.124022
  832 Fit       0.122351
  833 Fit       0.135531
  834 Fit       0.140412
  835 Fit       0.129807
  836 Fit       0.129521
  837 Fit       0.136710
  838 Fit       0.153040
  839 Fit       0.135652
  840 Fit       0.144090
  841 Fit       0.129443
  842 Fit       0.122539
  843 Fit       0.114605
  844 Fit       0.134555
  845 Fit       0.118059
  846 Fit       0.110793
  847 Fit       0.130768
  848 Fit       0.117055
  849 Fit       0.128030
  850 Fit       0.138123
  851 Fit       0.146592
  852 Fit       0.136278
  853 Fit       0.132876
  854 Fit       0.168503
  855 Fit       0.153471
  856 Fit       0.138365
  857 Fit       0.130138
  858 Fit       0.132350
  859 Fit       0.160973
  860 Fit       0.144749
  861 Fit       0.110493
  862 Fit       0.126609
  863 Fit       0.112104
  864 Fit       0.131261
  865 Fit       0.123490
  866 Fit       0.127367
  867 Fit       0.117038
  868 Fit       0.086815
  869 Fit       0.069787
  870 Fit       0.081005
  871 Fit       0.091946
  872 Fit       0.106259
  873 Fit       0.104063
  874 Fit       0.180597
  875 Fit       0.174983
  876 Fit       0.173459
  877 Fit       0.184784
  878 Fit       0.175560
  879 Fit       0.172160
  880 Fit       0.174116
  881 Fit       0.181852
  882 Fit       0.184346
  883 Fit       0.178725
  884 Fit       0.180012
  885 Fit       0.186921
  886 Fit       0.169248
  887 Fit       0.154739
  888 Fit       0.146433
  889 Fit       0.148786
  890 Fit       0.151654
  891 Fit       0.140454
  892 Fit       0.135923
  893 Fit       0.137029
  894 Fit       0.145907
  895 Fit       0.136149
  896 Fit       0.132508
  897 Fit       0.135526
  898 Fit       0.140760
  899 Fit       0.135922
  900 Fit       0.150164
  901 Fit       0.149645
  902 Fit       0.148153
  903 Fit       0.143716
  904 Fit       0.141810
  905 Fit       0.144440
  906 Fit       0.146584
  907 Fit       0.136375
  908 Fit       0.136265
  909 Fit       0.134061
  910 Fit       0.133551
  911 Fit       0.134045
  912 Fit       0.134505
  913 Fit       0.131685
  914 Fit       0.173321
  915 Fit       0.148241
  916 Fit       0.148301
  917 Fit       0.159888
  918 Fit       0.137622
  919 Fit       0.135583
  920 Fit       0.139465
  921 Fit       0.150298
  922 Fit       0.133100
  923 Fit       0.131894
  924 Fit       0.136798
  925 Fit       0.147779
  926 Fit       0.133713
  927 Fit       0.137287
  928 Fit       0.072508
  929 Fit       0.071884
  930 Fit       0.075651
  931 Fit       0.072182
  932 Fit       0.072715
  933 Fit       0.079852
  934 Fit       0.073699
  935 Fit       0.072605
  936 Fit       0.074557
  937 Fit       0.074506
  938 Fit       0.073325
  939 Fit       0.072874
  940 Fit       0.074932
  941 Fit       0.072607
  942 Fit       0.090828
  943 Fit       0.105467
  944 Fit       0.085024
  945 Fit       0.096516
  946 Fit       0.101658
  947 Fit       0.088911
  948 Fit       0.074972
  949 Fit       0.078592
  950 Fit       0.086996
  951 Fit       0.087000
  952 Fit       0.077253
  953 Fit       0.078516
  954 Fit       0.087405
  955 Fit       0.076277
  956 Fit       0.075191
  957 Fit       0.082228
  958 Fit       0.096341
  959 Fit       0.070871
  960 Fit       0.071865
  961 Fit       0.076586
  962 Fit       0.086184
  963 Fit       0.101431
  964 Fit       0.073250
  965 Fit       0.077498
  966 Fit       0.086676
  967 Fit       0.101444
  968 Fit       0.048186
  969 Fit       0.052107
  970 Fit       0.044934
  971 Fit       0.046229
  972 Fit       0.049828
  973 Fit       0.053093
  974 Fit       0.056412
  975 Fit       0.043901
  976 Fit       0.045937
  977 Fit       0.047732
  978 Fit       0.050534
  979 Fit       0.051986
  980 Fit       0.049217
  981 Fit       0.046061
  982 Fit       0.046342
  983 Fit       0.048374
  984 Fit       0.049452
  985 Fit       0.045064
  986 Fit       0.047325
  987 Fit       0.047919
  988 Fit       0.044751
  989 Fit       0.040794
  990 Fit       0.041986
  991 Fit       0.044871
  992 Fit       0.048065
  993 Fit       0.050260
  994 Fit       0.050610
  995 Fit       0.043699
  996 Fit       0.045762
  997 Fit       0.047905
  998 Fit       0.051318
  999 Fit       0.056366
 1000 Fit       0.045678
 1001 Fit       0.029403
 1002 Fit       0.039261
 1003 Fit       0.041684
 1004 Fit       0.034715
 1005 Fit       0.042779
 1006 Fit       0.043606
 1007 Fit       0.029949
 1008 Fit       0.042058
 1009 Fit       0.044485
 1010 Fit       0.043935
 1011 Fit       0.034260
 1012 Fit       0.042597
 1013 Fit       0.043699
 1014 Fit       0.039833
 1015 Fit       0.033167
 1016 Fit       0.037841
 1017 Fit       0.041724
 1018 Fit       0.042126
 1019 Fit       0.046265
 1020 Fit       0.042445
 1021 Fit       0.042454
 1022 Fit       0.043887
 1023 Fit       0.042756
 1024 Fit       0.037633
 1025 Fit       0.042138
 1026 Fit       0.034419
 1027 Fit       0.037703
 1028 Fit       0.037063
 1029 Fit       0.040920
 1030 Fit       0.035937
 1031 Fit       0.041538
 1032 Fit       0.039230
 1033 Fit       0.049096
 1034 Fit       0.047960
 1035 Fit       0.047931
 1036 Fit       0.047744
 1037 Fit       0.051276
 1038 Fit       0.039790
 1039 Fit       0.044085
 1040 Fit       0.043136
 1041 Fit       0.040815
 1042 Fit       0.047088
 1043 Fit       0.046733
 1044 Fit       0.046818
 1045 Fit       0.051566
 1046 Fit       0.059789
 1047 Fit       0.056568
 1048 Fit       0.053644
 1049 Fit       0.053650
 1050 Fit       0.051691
 1051 Fit       0.058733
 1052 Fit       0.054438
 1053 Fit       0.062400
 1054 Fit       0.048639
 1055 Fit       0.058931
 1056 Fit       0.066334
 1057 Fit       0.065132
 1058 Fit       0.059897
 1059 Fit       0.058638
 1060 Fit       0.066721
 1061 Fit       0.056269
 1062 Fit       0.059131
 1063 Fit       0.067527
 1064 Fit       0.061133
 1065 Fit       0.064652
 1066 Fit       0.042680
 1067 Fit       0.044262
 1068 Fit       0.044965
 1069 Fit       0.053481
 1070 Fit       0.053205
 1071 Fit       0.046302
 1072 Fit       0.055019
 1073 Fit       0.050902
 1074 Fit       0.050318
 1075 Fit       0.049490
 1076 Fit       0.051310
 1077 Fit       0.068278
 1078 Fit       0.070791
 1079 Fit       0.076790
 1080 Fit       0.086467
 1081 Fit       0.074600
 1082 Fit       0.081959
 1083 Fit       0.074382
 1084 Fit       0.068503
 1085 Fit       0.072591
 1086 Fit       0.069484
 1087 Fit       0.071681
 1088 Fit       0.059103
 1089 Fit       0.071833
 1090 Fit       0.067255
 1091 Fit       0.064564
 1092 Fit       0.098722
 1093 Fit       0.097873
 1094 Fit       0.096204
 1095 Fit       0.111377
 1096 Fit       0.064480
 1097 Fit       0.063841
 1098 Fit       0.081583
 1099 Fit       0.090180
 1100 Fit       0.088174
 1101 Fit       0.076599
 1102 Fit       0.079167
 1103 Fit       0.080227
 1104 Fit       0.086181
 1105 Fit       0.105392
 1106 Fit       0.086825
 1107 Fit       0.063623
 1108 Fit       0.130633
 1109 Fit       0.139522
 1110 Fit       0.170485
 1111 Fit       0.135586
 1112 Fit       0.140246
 1113 Fit       0.152236
 1114 Fit       0.047229
 1115 Fit       0.042847
 1116 Fit       0.041419
 1117 Fit       0.045094
 1118 Fit       0.036020
 1119 Fit       0.039919
 1120 Fit       0.035068
 1121 Fit       0.034914
 1122 Fit       0.035434
 1123 Fit       0.032948
 1124 Fit       0.045231
 1125 Fit       0.033755
 1126 Fit       0.036518
 1127 Fit       0.041423
 1128 Fit       0.035452
 1129 Fit       0.044304
 1130 Fit       0.041004
 1131 Fit       0.043473
 1132 Fit       0.053726
 1133 Fit       0.047619
 1134 Fit       0.047334
 1135 Fit       0.164071
 1136 Fit       0.165302
 1137 Fit       0.148663
 1138 Fit       0.128622
 1139 Fit       0.133228
 1140 Fit       0.129187
 1141 Fit       0.126348
 1142 Fit       0.126757
 1143 Fit       0.127436
 1144 Fit       0.127096
 1145 Fit       0.131316
 1146 Fit       0.126094
 1147 Fit       0.133272
 1148 Fit       0.127052
 1149 Fit       0.109219
 1150 Fit       0.100030
 1151 Fit       0.083023
 1152 Fit       0.080050
 1153 Fit       0.068671
 1154 Fit       0.071381
 1155 Fit       0.035097
 1156 Fit       0.028495
 1157 Fit       0.029350
 1158 Fit       0.037284
 1159 Fit       0.045276
 1160 Fit       0.044496
 1161 Fit       0.035583
 1162 Fit       0.025342
 1163 Fit       0.024396
 1164 Fit       0.028238
 1165 Fit       0.035962
 1166 Fit       0.045892
 1167 Fit       0.056240
 1168 Fit       0.063266
 1169 Fit       0.061703
 1170 Fit       0.052026
 1171 Fit       0.040257
 1172 Fit       0.030849
 1173 Fit       0.025823
 1174 Fit       0.024761
 1175 Fit       0.027580
 1176 Fit       0.034123
 1177 Fit       0.043533
 1178 Fit       0.055133
 1179 Fit       0.069275
 1180 Fit       0.053321
 1181 Fit       0.039464
 1182 Fit       0.030568
 1183 Fit       0.029941
 1184 Fit       0.029476
 1185 Fit       0.032184
 1186 Fit       0.038391
 1187 Fit       0.047757
 1188 Fit       0.059641
 1189 Fit       0.074384
 1190 Fit       0.056997
 1191 Fit       0.041683
 1192 Fit       0.033485
 1193 Fit       0.037703
 1194 Fit       0.038914
 1195 Fit       0.044245
 1196 Fit       0.055193
 1197 Fit       0.041396
 1198 Fit       0.105062
 1199 Fit       0.044267
 1200 Fit       0.048136
 1201 Fit       0.064451
 1202 Fit       0.057763
 1203 Fit       0.053766
 1204 Fit       0.059144
 1205 Fit       0.037880
 1206 Fit       0.033757
 1207 Fit       0.036538
 1208 Fit       0.042255
 1209 Fit       0.051713
 1210 Fit       0.042315
 1211 Fit       0.031512
 1212 Fit       0.036310
 1213 Fit       0.039812
 1214 Fit       0.041406
 1215 Fit       0.067218
 1216 Fit       0.046909
 1217 Fit       0.093605
 1218 Fit       0.068729
 1219 Fit       0.083602
 1220 Fit       0.052754
 1221 Fit       0.082535
 1222 Fit       0.053834
 1223 Fit       0.085882
 1224 Fit       0.067158
 1225 Fit       0.045012
 1226 Fit       0.057851
 1227 Fit       0.066464
 1228 Fit       0.062726
 1229 Fit       0.049584
 1230 Fit       0.036332
 1231 Fit       0.042499
 1232 Fit       0.048091
 1233 Fit       0.050792
 1234 Fit       0.052859
 1235 Fit       0.046766
 1236 Fit       0.040672
 1237 Fit       0.045982
 1238 Fit       0.027738
 1239 Fit       0.026331
 1240 Fit       0.026577
 1241 Fit       0.029103
 1242 Fit       0.023922
 1243 Fit       0.030223
 1244 Fit       0.024033
 1245 Fit       0.035944
 1246 Fit       0.025611
 1247 Fit       0.032648
 1248 Fit       0.026145
 1249 Fit       0.033360
 1250 Fit       0.028369
 1251 Fit       0.032514
 1252 Fit       0.033813
 1253 Fit       0.050480
 1254 Fit       0.055039
 1255 Fit       0.056899
 1256 Fit       0.062318
 1257 Fit       0.056979
 1258 Fit       0.059699
 1259 Fit       0.067051
 1260 Fit       0.056491
 1261 Fit       0.057163
 1262 Fit       0.061095
 1263 Fit       0.071814
 1264 Fit       0.056272
 1265 Fit       0.055225
 1266 Fit       0.060845
 1267 Fit       0.051150
 1268 Fit       0.059686
 1269 Fit       0.066484
 1270 Fit       0.049770
 1271 Fit       0.058495
 1272 Fit       0.064886
 1273 Fit       0.072183
 1274 Fit       0.054258
 1275 Fit       0.061844
 1276 Fit       0.068760
 1277 Fit       0.061773
 1278 Fit       0.069634
 1279 Fit       0.068981
 1280 Fit       0.062804
 1281 Fit       0.051693
 1282 Fit       0.073370
 1283 Fit       0.066449
 1284 Fit       0.055577
 1285 Fit       0.070533
 1286 Fit       0.064145
 1287 Fit       0.049664
 1288 Fit       0.063966
 1289 Fit       0.055654
 1290 Fit       0.113496
 1291 Fit       0.084031
 1292 Fit       0.087366
 1293 Fit       0.097485
 1294 Fit       0.104759
 1295 Fit       0.106695
 1296 Fit       0.101089
 1297 Fit       0.108828
 1298 Fit       0.116092
 1299 Fit       0.121755
 1300 Fit       0.123516
 1301 Fit       0.119813
 1302 Fit       0.127143
 1303 Fit       0.102617
 1304 Fit       0.092962
 1305 Fit       0.125429
 1306 Fit       0.118556
 1307 Fit       0.108970
 1308 Fit       0.098791
 1309 Fit       0.089709
 1310 Fit       0.117330
 1311 Fit       0.105563
 1312 Fit       0.097355
 1313 Fit       0.127186
 1314 Fit       0.121412
 1315 Fit       0.123954
 1316 Fit       0.123088
 1317 Fit       0.129733
 1318 Fit       0.128273
 1319 Fit       0.135419
 1320 Fit       0.128779
 1321 Fit       0.129457
 1322 Fit       0.136360
 1323 Fit       0.129756
 1324 Fit       0.133232
 1325 Fit       0.141855
 1326 Fit       0.152312
 1327 Fit       0.166548
 1328 Fit       0.144903
 1329 Fit       0.149167
 1330 Fit       0.140489
 1331 Fit       0.133649
 1332 Fit       0.137035
 1333 Fit       0.150649
 1334 Fit       0.132060
 1335 Fit       0.130513
 1336 Fit       0.136312
 1337 Fit       0.151509
 1338 Fit       0.135791
 1339 Fit       0.132645
 1340 Fit       0.139489
 1341 Fit       0.135351
 1342 Fit       0.125983
 1343 Fit       0.120388
 1344 Fit       0.124740
 1345 Fit       0.128372
 1346 Fit       0.134851
 1347 Fit       0.135785
 1348 Fit       0.128045
 1349 Fit       0.133011
 1350 Fit       0.143286
 1351 Fit       0.154585
 1352 Fit       0.152488
 1353 Fit       0.135676
 1354 Fit       0.130067
 1355 Fit       0.137407
 1356 Fit       0.127112
 1357 Fit       0.124072
 1358 Fit       0.129077
 1359 Fit       0.133334
 1360 Fit       0.125410
 1361 Fit       0.126453
 1362 Fit       0.133325
 1363 Fit       0.115451
 1364 Fit       0.113631
 1365 Fit       0.123518
 1366 Fit       0.130196
 1367 Fit       0.120777
 1368 Fit       0.121182
 1369 Fit       0.128564
 1370 Fit       0.127692
 1371 Fit       0.136101
 1372 Fit       0.123116
 1373 Fit       0.113008
 1374 Fit       0.105781
 1375 Fit       0.122810
 1376 Fit       0.108041
 1377 Fit       0.100997
 1378 Fit       0.119565
 1379 Fit       0.107485
 1380 Fit       0.139979
 1381 Fit       0.129234
 1382 Fit       0.125803
 1383 Fit       0.156348
 1384 Fit       0.140617
 1385 Fit       0.128432
 1386 Fit       0.122641
 1387 Fit       0.148588
 1388 Fit       0.135706
 1389 Fit       0.114009
 1390 Fit       0.103939
 1391 Fit       0.117437
 1392 Fit       0.112217
 1393 Fit       0.126131
 1394 Fit       0.081413
 1395 Fit       0.073587
 1396 Fit       0.083987
 1397 Fit       0.095987
 1398 Fit       0.168745
 1399 Fit       0.162287
 1400 Fit       0.160653
 1401 Fit       0.166351
 1402 Fit       0.160418
 1403 Fit       0.159272
 1404 Fit       0.162770
 1405 Fit       0.168313
 1406 Fit       0.165752
 1407 Fit       0.168923
 1408 Fit       0.161172
 1409 Fit       0.140224
 1410 Fit       0.137892
 1411 Fit       0.145060
 1412 Fit       0.135378
 1413 Fit       0.128740
 1414 Fit       0.127313
 1415 Fit       0.131463
 1416 Fit       0.142429
 1417 Fit       0.130828
 1418 Fit       0.125081
 1419 Fit       0.124613
 1420 Fit       0.127730
 1421 Fit       0.141609
 1422 Fit       0.140828
 1423 Fit       0.140244
 1424 Fit       0.137046
 1425 Fit       0.134284
 1426 Fit       0.139006
 1427 Fit       0.127754
 1428 Fit       0.127645
 1429 Fit       0.125810
 1430 Fit       0.125360
 1431 Fit       0.125855
 1432 Fit       0.126292
 1433 Fit       0.123261
 1434 Fit       0.165452
 1435 Fit       0.138846
 1436 Fit       0.141555
 1437 Fit       0.127822
 1438 Fit       0.127569
 1439 Fit       0.132498
 1440 Fit       0.144508
 1441 Fit       0.123509
 1442 Fit       0.124142
 1443 Fit       0.129929
 1444 Fit       0.141292
 1445 Fit       0.125495
 1446 Fit       0.129308
 1447 Fit       0.069977
 1448 Fit       0.068928
 1449 Fit       0.072887
 1450 Fit       0.068892
 1451 Fit       0.069277
 1452 Fit       0.072750
 1453 Fit       0.070380
 1454 Fit       0.069110
 1455 Fit       0.071029
 1456 Fit       0.071262
 1457 Fit       0.069905
 1458 Fit       0.070208
 1459 Fit       0.070404
 1460 Fit       0.098045
 1461 Fit       0.113759
 1462 Fit       0.079784
 1463 Fit       0.089908
 1464 Fit       0.100580
 1465 Fit       0.099883
 1466 Fit       0.083079
 1467 Fit       0.076705
 1468 Fit       0.085312
 1469 Fit       0.085709
 1470 Fit       0.075457
 1471 Fit       0.076586
 1472 Fit       0.072473
 1473 Fit       0.071751
 1474 Fit       0.078958
 1475 Fit       0.094087
 1476 Fit       0.068843
 1477 Fit       0.072008
 1478 Fit       0.079358
 1479 Fit       0.091998
 1480 Fit       0.073476
 1481 Fit       0.080606
 1482 Fit       0.093032
 1483 Fit       0.046458
 1484 Fit       0.050334
 1485 Fit       0.043532
 1486 Fit       0.044545
 1487 Fit       0.047525
 1488 Fit       0.050777
 1489 Fit       0.054908
 1490 Fit       0.043331
 1491 Fit       0.044413
 1492 Fit       0.045638
 1493 Fit       0.048140
 1494 Fit       0.049923
 1495 Fit       0.047280
 1496 Fit       0.044465
 1497 Fit       0.044801
 1498 Fit       0.046224
 1499 Fit       0.047434
 1500 Fit       0.043036
 1501 Fit       0.044861
 1502 Fit       0.045555
 1503 Fit       0.042656
 1504 Fit       0.039075
 1505 Fit       0.040657
 1506 Fit       0.042908
 1507 Fit       0.045608
 1508 Fit       0.047698
 1509 Fit       0.048783
 1510 Fit       0.042457
 1511 Fit       0.043795
 1512 Fit       0.045971
 1513 Fit       0.049199
 1514 Fit       0.054380
 1515 Fit       0.044046
 1516 Fit       0.029073
 1517 Fit       0.038371
 1518 Fit       0.040738
 1519 Fit       0.038142
 1520 Fit       0.041862
 1521 Fit       0.042006
 1522 Fit       0.036047
 1523 Fit       0.041991
 1524 Fit       0.042813
 1525 Fit       0.042435
 1526 Fit       0.038208
 1527 Fit       0.042106
 1528 Fit       0.042598
 1529 Fit       0.039549
 1530 Fit       0.034413
 1531 Fit       0.037720
 1532 Fit       0.040654
 1533 Fit       0.041158
 1534 Fit       0.040979
 1535 Fit       0.041132
 1536 Fit       0.042560
 1537 Fit       0.045202
 1538 Fit       0.048926
 1539 Fit       0.041339
 1540 Fit       0.041778
 1541 Fit       0.043117
 1542 Fit       0.042100
 1543 Fit       0.038823
 1544 Fit       0.041974
 1545 Fit       0.035123
 1546 Fit       0.037802
 1547 Fit       0.039150
 1548 Fit       0.041802
 1549 Fit       0.036745
 1550 Fit       0.041057
 1551 Fit       0.039427
 1552 Fit       0.046525
 1553 Fit       0.045401
 1554 Fit       0.045102
 1555 Fit       0.047242
 1556 Fit       0.050018
 1557 Fit       0.041508
 1558 Fit       0.044374
 1559 Fit       0.044400
 1560 Fit       0.040075
 1561 Fit       0.047491
 1562 Fit       0.044133
 1563 Fit       0.045031
 1564 Fit       0.048243
 1565 Fit       0.058548
 1566 Fit       0.055782
 1567 Fit       0.052962
 1568 Fit       0.051989
 1569 Fit       0.050205
 1570 Fit       0.056891
 1571 Fit       0.051729
 1572 Fit       0.058818
 1573 Fit       0.047320
 1574 Fit       0.048578
 1575 Fit       0.056751
 1576 Fit       0.063289
 1577 Fit       0.063788
 1578 Fit       0.059550
 1579 Fit       0.057503
 1580 Fit       0.053691
 1581 Fit       0.057551
 1582 Fit       0.067434
 1583 Fit       0.061052
 1584 Fit       0.064257
 1585 Fit       0.041519
 1586 Fit       0.042823
 1587 Fit       0.043640
 1588 Fit       0.048630
 1589 Fit       0.048726
 1590 Fit       0.044792
 1591 Fit       0.059316
 1592 Fit       0.052456
 1593 Fit       0.049665
 1594 Fit       0.050246
 1595 Fit       0.049195
 1596 Fit       0.050757
 1597 Fit       0.065745
 1598 Fit       0.066084
 1599 Fit       0.067724
 1600 Fit       0.068705
 1601 Fit       0.073084
 1602 Fit       0.081690
 1603 Fit       0.095666
 1604 Fit       0.072333
 1605 Fit       0.079473
 1606 Fit       0.091567
 1607 Fit       0.076127
 1608 Fit       0.072282
 1609 Fit       0.066634
 1610 Fit       0.070640
 1611 Fit       0.068589
 1612 Fit       0.070079
 1613 Fit       0.072152
 1614 Fit       0.068109
 1615 Fit       0.102023
 1616 Fit       0.119423
 1617 Fit       0.074679
 1618 Fit       0.081674
 1619 Fit       0.079956
 1620 Fit       0.070241
 1621 Fit       0.082244
 1622 Fit       0.068392
 1623 Fit       0.086626
 1624 Fit       0.072381
 1625 Fit       0.085062
 1626 Fit       0.123443
 1627 Fit       0.126028
 1628 Fit       0.130600
 1629 Fit       0.127870
 1630 Fit       0.127750
 1631 Fit       0.132660
 1632 Fit       0.045996
 1633 Fit       0.043068
 1634 Fit       0.042551
 1635 Fit       0.044512
 1636 Fit       0.038803
 1637 Fit       0.041483
 1638 Fit       0.038799
 1639 Fit       0.037163
 1640 Fit       0.044511
 1641 Fit       0.039729
 1642 Fit       0.035741
 1643 Fit       0.042516
 1644 Fit       0.039107
 1645 Fit       0.036062
 1646 Fit       0.044214
 1647 Fit       0.048686
 1648 Fit       0.037910
 1649 Fit       0.038712
 1650 Fit       0.043116
 1651 Fit       0.039322
 1652 Fit       0.045633
 1653 Fit       0.043646
 1654 Fit       0.045571
 1655 Fit       0.053471
 1656 Fit       0.048381
 1657 Fit       0.048772
 1658 Fit       0.138685
 1659 Fit       0.127985
 1660 Fit       0.121977
 1661 Fit       0.130941
 1662 Fit       0.119587
 1663 Fit       0.118579
 1664 Fit       0.133603
 1665 Fit       0.123605
 1666 Fit       0.119597
 1667 Fit       0.117257
 1668 Fit       0.117467
 1669 Fit       0.120080
 1670 Fit       0.123592
 1671 Fit       0.118724
 1672 Fit       0.118403
 1673 Fit       0.118551
 1674 Fit       0.118585
 1675 Fit       0.116017
 1676 Fit       0.136618
 1677 Fit       0.125055
 1678 Fit       0.116719
 1679 Fit       0.125663
 1680 Fit       0.098537
 1681 Fit       0.113133
 1682 Fit       0.105073
 1683 Fit       0.090885
 1684 Fit       0.070526
 1685 Fit       0.085457
 1686 Fit       0.082610
 1687 Fit       0.070303
 1688 Fit       0.073265
 1689 Fit       0.037328
 1690 Fit       0.031706
 1691 Fit       0.032508
 1692 Fit       0.039128
 1693 Fit       0.045807
 1694 Fit       0.045067
 1695 Fit       0.037540
 1696 Fit       0.028681
 1697 Fit       0.028023
 1698 Fit       0.031243
 1699 Fit       0.037686
 1700 Fit       0.046090
 1701 Fit       0.054713
 1702 Fit       0.060221
 1703 Fit       0.058810
 1704 Fit       0.050922
 1705 Fit       0.041083
 1706 Fit       0.033171
 1707 Fit       0.028252
 1708 Fit       0.027401
 1709 Fit       0.029339
 1710 Fit       0.034011
 1711 Fit       0.040983
 1712 Fit       0.049761
 1713 Fit       0.060123
 1714 Fit       0.048758
 1715 Fit       0.038533
 1716 Fit       0.031844
 1717 Fit       0.030400
 1718 Fit       0.029916
 1719 Fit       0.031824
 1720 Fit       0.036369
 1721 Fit       0.043361
 1722 Fit       0.052422
 1723 Fit       0.063535
 1724 Fit       0.050588
 1725 Fit       0.039376
 1726 Fit       0.033209
 1727 Fit       0.035083
 1728 Fit       0.035516
 1729 Fit       0.038250
 1730 Fit       0.044080
 1731 Fit       0.053108
 1732 Fit       0.064905
 1733 Fit       0.079119
 1734 Fit       0.058628
 1735 Fit       0.043295
 1736 Fit       0.036795
 1737 Fit       0.044846
 1738 Fit       0.049806
 1739 Fit       0.059770
 1740 Fit       0.108265
 1741 Fit       0.042238
 1742 Fit       0.044644
 1743 Fit       0.066089
 1744 Fit       0.059416
 1745 Fit       0.054387
 1746 Fit       0.058821
 1747 Fit       0.039191
 1748 Fit       0.035223
 1749 Fit       0.036985
 1750 Fit       0.041187
 1751 Fit       0.050862
 1752 Fit       0.044011
 1753 Fit       0.034789
 1754 Fit       0.035275
 1755 Fit       0.036883
 1756 Fit       0.038801
 1757 Fit       0.039580
 1758 Fit       0.066379
 1759 Fit       0.048932
 1760 Fit       0.068833
 1761 Fit       0.044803
 1762 Fit       0.074031
 1763 Fit       0.084774
 1764 Fit       0.057546
 1765 Fit       0.073982
 1766 Fit       0.049554
 1767 Fit       0.084600
 1768 Fit       0.068117
 1769 Fit       0.049327
 1770 Fit       0.060844
 1771 Fit       0.067528
 1772 Fit       0.063977
 1773 Fit       0.052327
 1774 Fit       0.041320
 1775 Fit       0.037801
 1776 Fit       0.044229
 1777 Fit       0.048771
 1778 Fit       0.052589
 1779 Fit       0.055169
 1780 Fit       0.049486
 1781 Fit       0.043335
 1782 Fit       0.048109
 1783 Fit       0.031467
 1784 Fit       0.031434
 1785 Fit       0.030417
 1786 Fit       0.034831
 1787 Fit       0.029490
 1788 Fit       0.045004
 1789 Fit       0.033271
 1790 Fit       0.029970
 1791 Fit       0.037811
 1792 Fit       0.030880
 1793 Fit       0.038821
 1794 Fit       0.031725
 1795 Fit       0.036114
 1796 Fit       0.032259
 1797 Fit       0.038958
 1798 Fit       0.033945
 1799 Fit       0.037173
 1800 Fit       0.037038
 1801 Fit       0.051610
 1802 Fit       0.052738
 1803 Fit       0.056220
 1804 Fit       0.053379
 1805 Fit       0.055194
 1806 Fit       0.060122
 1807 Fit       0.053581
 1808 Fit       0.054187
 1809 Fit       0.056659
 1810 Fit       0.062954
 1811 Fit       0.053853
 1812 Fit       0.054088
 1813 Fit       0.057563
 1814 Fit       0.066168
 1815 Fit       0.053433
 1816 Fit       0.052712
 1817 Fit       0.057169
 1818 Fit       0.056388
 1819 Fit       0.062683
 1820 Fit       0.045936
 1821 Fit       0.053879
 1822 Fit       0.059612
 1823 Fit       0.065661
 1824 Fit       0.047564
 1825 Fit       0.054841
 1826 Fit       0.060433
 1827 Fit       0.066672
 1828 Fit       0.052451
 1829 Fit       0.058771
 1830 Fit       0.065041
 1831 Fit       0.059088
 1832 Fit       0.065932
 1833 Fit       0.061670
 1834 Fit       0.057022
 1835 Fit       0.049002
 1836 Fit       0.067117
 1837 Fit       0.061124
 1838 Fit       0.053329
 1839 Fit       0.067401
 1840 Fit       0.061631
 1841 Fit       0.053189
 1842 Fit       0.063842
 1843 Fit       0.058663
 1844 Fit       0.058818
 1845 Fit       0.052580
 1846 Fit       0.108580
 1847 Fit       0.086041
 1848 Fit       0.090858
 1849 Fit       0.097738
 1850 Fit       0.099972
 1851 Fit       0.106570
 1852 Fit       0.111496
 1853 Fit       0.113243
 1854 Fit       0.104804
 1855 Fit       0.111338
 1856 Fit       0.118719
 1857 Fit       0.095903
 1858 Fit       0.086852
 1859 Fit       0.108860
 1860 Fit       0.100320
 1861 Fit       0.091070
 1862 Fit       0.114247
 1863 Fit       0.102963
 1864 Fit       0.092899
 1865 Fit       0.105137
 1866 Fit       0.122850
 1867 Fit       0.115697
 1868 Fit       0.118072
 1869 Fit       0.114970
 1870 Fit       0.118217
 1871 Fit       0.128038
 1872 Fit       0.118158
 1873 Fit       0.122946
 1874 Fit       0.124428
 1875 Fit       0.122936
 1876 Fit       0.128736
 1877 Fit       0.122076
 1878 Fit       0.124499
 1879 Fit       0.131084
 1880 Fit       0.138958
 1881 Fit       0.133009
 1882 Fit       0.140901
 1883 Fit       0.153773
 1884 Fit       0.143632
 1885 Fit       0.128605
 1886 Fit       0.131286
 1887 Fit       0.143452
 1888 Fit       0.128416
 1889 Fit       0.123802
 1890 Fit       0.125688
 1891 Fit       0.133995
 1892 Fit       0.151034
 1893 Fit       0.126500
 1894 Fit       0.123287
 1895 Fit       0.126304
 1896 Fit       0.136672
 1897 Fit       0.127550
 1898 Fit       0.134299
 1899 Fit       0.118488
 1900 Fit       0.123178
 1901 Fit       0.125794
 1902 Fit       0.122648
 1903 Fit       0.115828
 1904 Fit       0.118005
 1905 Fit       0.121122
 1906 Fit       0.127279
 1907 Fit       0.129598
 1908 Fit       0.122374
 1909 Fit       0.126871
 1910 Fit       0.146288
 1911 Fit       0.130707
 1912 Fit       0.125731
 1913 Fit       0.141494
 1914 Fit       0.126827
 1915 Fit       0.119715
 1916 Fit       0.118541
 1917 Fit       0.126212
 1918 Fit       0.118242
 1919 Fit       0.116039
 1920 Fit       0.127310
 1921 Fit       0.119652
 1922 Fit       0.109752
 1923 Fit       0.115091
 1924 Fit       0.108878
 1925 Fit       0.109056
 1926 Fit       0.119180
 1927 Fit       0.121849
 1928 Fit       0.113268
 1929 Fit       0.115570
 1930 Fit       0.122480
 1931 Fit       0.121373
 1932 Fit       0.128998
 1933 Fit       0.108420
 1934 Fit       0.101700
 1935 Fit       0.111097
 1936 Fit       0.099036
 1937 Fit       0.115223
 1938 Fit       0.100838
 1939 Fit       0.116103
 1940 Fit       0.103191
 1941 Fit       0.132120
 1942 Fit       0.122828
 1943 Fit       0.142424
 1944 Fit       0.130262
 1945 Fit       0.120506
 1946 Fit       0.116018
 1947 Fit       0.144337
 1948 Fit       0.130153
 1949 Fit       0.121674
 1950 Fit       0.107436
 1951 Fit       0.106973
 1952 Fit       0.108534
 1953 Fit       0.127979
 1954 Fit       0.121681
 1955 Fit       0.066437
 1956 Fit       0.077369
 1957 Fit       0.089600
 1958 Fit       0.069896
 1959 Fit       0.096319
 1960 Fit       0.152155
 1961 Fit       0.150636
 1962 Fit       0.154288
 1963 Fit       0.148977
 1964 Fit       0.147936
 1965 Fit       0.151102
 1966 Fit       0.155761
 1967 Fit       0.151565
 1968 Fit       0.151282
 1969 Fit       0.154647
 1970 Fit       0.158670
 1971 Fit       0.137659
 1972 Fit       0.135540
 1973 Fit       0.137699
 1974 Fit       0.127491
 1975 Fit       0.123537
 1976 Fit       0.124518
 1977 Fit       0.127847
 1978 Fit       0.120817
 1979 Fit       0.118018
 1980 Fit       0.119228
 1981 Fit       0.123067
 1982 Fit       0.118003
 1983 Fit       0.117877
 1984 Fit       0.128563
 1985 Fit       0.128334
 1986 Fit       0.127963
 1987 Fit       0.126010
 1988 Fit       0.124075
 1989 Fit       0.125795
 1990 Fit       0.127159
 1991 Fit       0.119301
 1992 Fit       0.119248
 1993 Fit       0.117988
 1994 Fit       0.117533
 1995 Fit       0.117881
 1996 Fit       0.118338
 1997 Fit       0.116073
 1998 Fit       0.137080
 1999 Fit       0.139513
 2000 Fit       0.127519
 2001 Fit       0.123660
 2002 Fit       0.125035
 2003 Fit       0.131882
 2004 Fit       0.121188
 2005 Fit       0.117552
 2006 Fit       0.118281
 2007 Fit       0.123012
 2008 Fit       0.132786
 2009 Fit       0.116440
 2010 Fit       0.116643
 2011 Fit       0.121509
 2012 Fit       0.131245
 2013 Fit       0.119305
 2014 Fit       0.122695
 2015 Fit       0.067109
 2016 Fit       0.066110
 2017 Fit       0.066352
 2018 Fit       0.069655
 2019 Fit       0.066187
 2020 Fit       0.066218
 2021 Fit       0.068904
 2022 Fit       0.066943
 2023 Fit       0.066450
 2024 Fit       0.068857
 2025 Fit       0.068059
 2026 Fit       0.067081
 2027 Fit       0.068061
 2028 Fit       0.068533
 2029 Fit       0.088428
 2030 Fit       0.101948
 2031 Fit       0.113720
 2032 Fit       0.077561
 2033 Fit       0.086650
 2034 Fit       0.096324
 2035 Fit       0.096896
 2036 Fit       0.084257
 2037 Fit       0.074954
 2038 Fit       0.082491
 2039 Fit       0.083175
 2040 Fit       0.074329
 2041 Fit       0.074932
 2042 Fit       0.070176
 2043 Fit       0.069647
 2044 Fit       0.076539
 2045 Fit       0.066601
 2046 Fit       0.070071
 2047 Fit       0.077365
 2048 Fit       0.089742
 2049 Fit       0.069892
 2050 Fit       0.075741
 2051 Fit       0.085972
 2052 Fit       0.045252
 2053 Fit       0.048597
 2054 Fit       0.042610
 2055 Fit       0.043500
 2056 Fit       0.045944
 2057 Fit       0.048783
 2058 Fit       0.051749
 2059 Fit       0.042804
 2060 Fit       0.043395
 2061 Fit       0.044279
 2062 Fit       0.046348
 2063 Fit       0.047978
 2064 Fit       0.046195
 2065 Fit       0.044063
 2066 Fit       0.044083
 2067 Fit       0.044840
 2068 Fit       0.045980
 2069 Fit       0.041548
 2070 Fit       0.042846
 2071 Fit       0.043428
 2072 Fit       0.041270
 2073 Fit       0.038729
 2074 Fit       0.039931
 2075 Fit       0.041457
 2076 Fit       0.043533
 2077 Fit       0.045193
 2078 Fit       0.045926
 2079 Fit       0.041185
 2080 Fit       0.042121
 2081 Fit       0.044044
 2082 Fit       0.046475
 2083 Fit       0.049724
 2084 Fit       0.041620
 2085 Fit       0.042470
 2086 Fit       0.044982
 2087 Fit       0.048474
 2088 Fit       0.037787
 2089 Fit       0.037663
 2090 Fit       0.040439
 2091 Fit       0.040691
 2092 Fit       0.038870
 2093 Fit       0.041353
 2094 Fit       0.041386
 2095 Fit       0.041179
 2096 Fit       0.038988
 2097 Fit       0.041535
 2098 Fit       0.041639
 2099 Fit       0.038235
 2100 Fit       0.041207
 -----------------------------------------------------------------
 Leave Link  602 at Tue Oct 21 13:42:49 2025, MaxMem=  8589934592 cpu:               1.9 elap:               0.2
 (Enter /appl/soft/chem/gaussian/G16RevC.02/g16/l9999.exe)

 Test job not archived.
 1\1\GINC-C3202\SP\RHF\6-31G(d)\C19H27N8S1(1+)\NGOQUOC1\21-Oct-2025\0\\
 #P HF/6-31G* SCF=Tight Pop=MK IOp(6/33=2)\\YT0 ESP charges calculation
 \\1,1\C,0,5.893,-3.682,0.033\C,0,4.877,-2.586,-0.075\C,0,5.181,-1.224,
 -0.326\C,0,4.034,-0.456,-0.366\C,0,2.859,1.69,-0.656\C,0,1.939,3.718,-
 1.034\C,0,0.649,3.226,-0.826\N,0,3.983,0.906,-0.6\C,0,-0.568,4.083,-1.
 021\C,0,0.594,1.866,-0.477\C,0,-0.564,-0.1,0.451\C,0,-1.955,0.219,1.04
 6\C,0,-2.143,-0.051,2.55\C,0,-1.105,0.595,3.353\C,0,-4.355,0.146,0.431
 \C,0,-5.206,-0.222,-0.772\N,0,3.058,2.985,-0.953\C,0,-6.061,-2.14,-2.1
 15\C,0,-3.847,-2.298,-0.98\C,0,-3.063,-1.834,0.234\C,0,-1.686,1.685,0.
 619\N,0,-0.605,1.19,-0.258\N,0,-0.258,1.147,3.964\N,0,-3.015,-0.379,0.
 221\N,0,-5.242,-1.722,-0.933\N,0,1.686,1.091,-0.403\S,0,2.669,-1.489,-
 0.086\N,0,3.584,-2.881,0.073\H,0,6.182,-0.829,-0.468\H,0,2.081,4.766,-
 1.296\H,0,4.855,1.394,-0.785\H,0,0.225,-0.141,1.212\H,0,-0.463,-0.97,-
 0.205\H,0,-3.12,0.315,2.889\H,0,-2.113,-1.13,2.747\H,0,-4.328,1.237,0.
 499\H,0,-4.838,-0.227,1.355\H,0,-6.241,0.117,-0.672\H,0,-4.769,0.18,-1
 .689\H,0,-3.947,-3.386,-1.022\H,0,-3.386,-1.931,-1.899\H,0,-2.054,-2.2
 46,0.156\H,0,-3.518,-2.251,1.153\H,0,-2.491,2.213,0.099\H,0,-1.325,2.2
 98,1.455\H,0,-5.694,-2.103,-0.089\H,0,-7.068,-1.737,-2.006\H,0,-5.589,
 -1.742,-3.013\H,0,-6.091,-3.229,-2.155\H,0,-0.286,5.029,-1.49\H,0,-1.2
 91,3.585,-1.677\H,0,-1.071,4.322,-0.078\H,0,6.474,-3.772,-0.891\H,0,6.
 594,-3.489,0.851\H,0,5.386,-4.63,0.222\\Version=AS64L-G16RevC.02\State
 =1-A\HF=-1568.0483368\RMSD=5.194e-09\Dipole=-9.7412662,-1.9385164,-2.0
 235529\Quadrupole=72.6275685,-25.5882883,-47.0392801,27.5484213,9.3606
 529,0.6615992\PG=C01 [X(C19H27N8S1)]\\@


 ...THE PHYSICISTS HAVE MADE THEIR UNIVERSE, AND IF YOU DO NOT LIKE
 IT, YOU MUST MAKE YOUR OWN.
                               -- E. R. HARRISON IN "COSMOLOGY" (1980)
 Job cpu time:       0 days  0 hours  5 minutes 42.3 seconds.
 Elapsed time:       0 days  0 hours  0 minutes 17.8 seconds.
 File lengths (MBytes):  RWF=    126 Int=      0 D2E=      0 Chk=     14 Scr=      1
 Normal termination of Gaussian 16 at Tue Oct 21 13:42:50 2025.
